#=======================================================
# FHI-aims file: /Users/flokno/working/projects/so3krates/dev_SnSe/test_10_EOS_easy/finer/so3krates_L2/eos/005/relaxation/geometry.in.next_step
# Created using the Atomic Simulation Environment (ASE)
# Mon Apr 17 17:14:07 2023

# Additional information:
#  Relaxed with BFGS, fmax=0.100 meV/AA
#  nsteps = 21
#  residual force  = 0.032386 meV/AA
#=======================================================
lattice_vector 11.5081729631559995 -0.0000000000000000 0.0000000000000000 
lattice_vector 0.0000000000000000 4.1612069505590004 0.0000000000000000 
lattice_vector 0.0000000000000000 0.0000000000000000 4.3573825900510004 
atom_frac 0.8586165764520000 0.7500000000000000 0.0314881879050000 Se
atom_frac 0.1413834235480000 0.2500000000000000 0.9685118120950000 Se
atom_frac 0.6413834235480000 0.2500000000000000 0.5314881879050000 Se
atom_frac 0.3586165764520000 0.7500000000000000 0.4685118120949999 Se
atom_frac 0.1193675030120000 0.7500000000000000 0.4036425780170000 Sn
atom_frac 0.8806324969879998 0.2500000000000000 0.5963574219830000 Sn
atom_frac 0.3806324969879999 0.2500000000000000 0.9036425780169999 Sn
atom_frac 0.6193675030120001 0.7500000000000000 0.0963574219830000 Sn
