#=======================================================
# FHI-aims file: /cfs/klemming/projects/snic/snic2021-1-10/dardel-test/flokno/projects/so3krates/dev_SnSe/test_10_EOS_easy/finer/dft_01/eos/007/relaxation/geometry.in.next_step
# Created using the Atomic Simulation Environment (ASE)
# Mon Apr 17 17:20:17 2023

# Additional information:
#  Relaxed with BFGS, fmax=0.100 meV/AA
#  nsteps = 20
#  residual force  = 0.033089 meV/AA
#=======================================================
lattice_vector 11.5313049691120000 -0.0000000000000000 0.0000000000000000 
lattice_vector 0.0000000000000000 4.1695711856350002 0.0000000000000000 
lattice_vector 0.0000000000000000 0.0000000000000000 4.3661411480209997 
atom_frac 0.8584441832759999 0.7499999219890000 0.0331314484600000 Se
atom_frac 0.1415559739730000 0.2500001940020000 0.9668684988010001 Se
atom_frac 0.6415560342690000 0.2499999951450000 0.5331315041120001 Se
atom_frac 0.3584440069480000 0.7499999681190000 0.4668685047530000 Se
atom_frac 0.1194179716930000 0.7500000205860000 0.3995346941950000 Sn
atom_frac 0.8805821212009999 0.2500000330270000 0.6004654202090000 Sn
atom_frac 0.3805820893470000 0.2499998386580000 0.8995346421660001 Sn
atom_frac 0.6194176192930000 0.7500000284740000 0.1004652873040000 Sn
