#=======================================================
# FHI-aims file: /Users/flokno/working/projects/so3krates/dev_SnSe/test_10_EOS_easy/finer/so3krates_L1/eos/005/relaxation/geometry.in.next_step
# Created using the Atomic Simulation Environment (ASE)
# Mon Apr 17 17:08:28 2023

# Additional information:
#  Relaxed with BFGS, fmax=0.100 meV/AA
#  nsteps = 21
#  residual force  = 0.069070 meV/AA
#=======================================================
lattice_vector 11.5081729631559995 -0.0000000000000000 0.0000000000000000 
lattice_vector 0.0000000000000000 4.1612069505590004 0.0000000000000000 
lattice_vector 0.0000000000000000 0.0000000000000000 4.3573825900510004 
atom_frac 0.8587174616549998 0.7500000000000000 0.0293276351690000 Se
atom_frac 0.1412825383450000 0.2500000000000000 0.9706723648309998 Se
atom_frac 0.6412825383450000 0.2500000000000000 0.5293276351690001 Se
atom_frac 0.3587174616550000 0.7500000000000000 0.4706723648310000 Se
atom_frac 0.1195135394620000 0.7500000000000000 0.4068045959920000 Sn
atom_frac 0.8804864605379999 0.2500000000000000 0.5931954040080000 Sn
atom_frac 0.3804864605380000 0.2500000000000000 0.9068045959920000 Sn
atom_frac 0.6195135394620001 0.7500000000000000 0.0931954040080000 Sn
