#=======================================================
# FHI-aims file: ./geometry.in
# Created using the Atomic Simulation Environment (ASE)
# Fri Apr 14 09:38:32 2023
#=======================================================
lattice_vector 11.3809469303972648 -0.0000000000000000 0.0000000000000000 
lattice_vector 0.0000000000000000 4.1152036576380002 0.0000000000000000 
lattice_vector 0.0000000000000000 0.0000000000000000 4.3092105212163840 
atom_frac 0.8583082468549997 0.7499999999999999 0.0328750447190000 Se
atom_frac 0.1416917531450001 0.2500000000000000 0.9671249552810006 Se
atom_frac 0.6416917531449999 0.2500000000000000 0.5328750447189994 Se
atom_frac 0.3583082468549998 0.7499999999999999 0.4671249552810007 Se
atom_frac 0.1199418973520000 0.7499999999999999 0.3979764533640009 Sn
atom_frac 0.8800581026480016 0.2500000000000000 0.6020235466359992 Sn
atom_frac 0.3800581026480000 0.2500000000000000 0.8979764533640009 Sn
atom_frac 0.6199418973519999 0.7499999999999999 0.1020235466360001 Sn
