#=======================================================
# FHI-aims file: geometry.in.primitive.supercell_864
# Created using the Atomic Simulation Environment (ASE)
# Fri Apr  7 17:35:11 2023

# Additional information:
#  Number of atoms:     864
#  Spacegroup:          62
#  supercell:           True
#  supercell_matrix:    [3, 0, 0, 0, 6, 0, 0, 0, 6]
#  Supercell matrix:    [3 0 0 0 6 0 0 0 6]
#=======================================================
lattice_vector 34.9035775646610560 0.0000000000000000 0.0000000000000000 
lattice_vector 0.0000000000000000 25.1740171528921195 0.0000000000000000 
lattice_vector 0.0000000000000000 0.0000000000000000 26.4253291498020602 
atom_frac 0.2861027489516667 0.1250000000000000 0.0054791741198333 Se
atom_frac 0.6194360822850000 0.1250000000000000 0.0054791741198333 Se
atom_frac 0.9527694156183333 0.1250000000000000 0.0054791741198333 Se
atom_frac 0.2861027489516667 0.2916666666666666 0.0054791741198333 Se
atom_frac 0.6194360822850000 0.2916666666666666 0.0054791741198333 Se
atom_frac 0.9527694156183333 0.2916666666666666 0.0054791741198333 Se
atom_frac 0.2861027489516667 0.4583333333333333 0.0054791741198333 Se
atom_frac 0.6194360822850000 0.4583333333333333 0.0054791741198333 Se
atom_frac 0.9527694156183333 0.4583333333333333 0.0054791741198333 Se
atom_frac 0.2861027489516667 0.6250000000000000 0.0054791741198333 Se
atom_frac 0.6194360822850000 0.6250000000000000 0.0054791741198333 Se
atom_frac 0.9527694156183333 0.6250000000000000 0.0054791741198333 Se
atom_frac 0.2861027489516667 0.7916666666666666 0.0054791741198333 Se
atom_frac 0.6194360822850000 0.7916666666666666 0.0054791741198333 Se
atom_frac 0.9527694156183333 0.7916666666666666 0.0054791741198333 Se
atom_frac 0.2861027489516667 0.9583333333333331 0.0054791741198333 Se
atom_frac 0.6194360822850000 0.9583333333333331 0.0054791741198333 Se
atom_frac 0.9527694156183333 0.9583333333333331 0.0054791741198333 Se
atom_frac 0.2861027489516667 0.1250000000000000 0.1721458407865000 Se
atom_frac 0.6194360822850000 0.1250000000000000 0.1721458407865000 Se
atom_frac 0.9527694156183333 0.1250000000000000 0.1721458407865000 Se
atom_frac 0.2861027489516667 0.2916666666666666 0.1721458407865000 Se
atom_frac 0.6194360822850000 0.2916666666666666 0.1721458407865000 Se
atom_frac 0.9527694156183333 0.2916666666666666 0.1721458407865000 Se
atom_frac 0.2861027489516667 0.4583333333333333 0.1721458407865000 Se
atom_frac 0.6194360822850000 0.4583333333333333 0.1721458407865000 Se
atom_frac 0.9527694156183333 0.4583333333333333 0.1721458407865000 Se
atom_frac 0.2861027489516667 0.6250000000000000 0.1721458407865000 Se
atom_frac 0.6194360822850000 0.6250000000000000 0.1721458407865000 Se
atom_frac 0.9527694156183333 0.6250000000000000 0.1721458407865000 Se
atom_frac 0.2861027489516667 0.7916666666666666 0.1721458407865000 Se
atom_frac 0.6194360822850000 0.7916666666666666 0.1721458407865000 Se
atom_frac 0.9527694156183333 0.7916666666666666 0.1721458407865000 Se
atom_frac 0.2861027489516667 0.9583333333333331 0.1721458407865000 Se
atom_frac 0.6194360822850000 0.9583333333333331 0.1721458407865000 Se
atom_frac 0.9527694156183333 0.9583333333333331 0.1721458407865000 Se
atom_frac 0.2861027489516667 0.1250000000000000 0.3388125074531667 Se
atom_frac 0.6194360822850000 0.1250000000000000 0.3388125074531667 Se
atom_frac 0.9527694156183333 0.1250000000000000 0.3388125074531667 Se
atom_frac 0.2861027489516667 0.2916666666666666 0.3388125074531667 Se
atom_frac 0.6194360822850000 0.2916666666666666 0.3388125074531667 Se
atom_frac 0.9527694156183333 0.2916666666666666 0.3388125074531667 Se
atom_frac 0.2861027489516667 0.4583333333333333 0.3388125074531667 Se
atom_frac 0.6194360822850000 0.4583333333333333 0.3388125074531667 Se
atom_frac 0.9527694156183333 0.4583333333333333 0.3388125074531667 Se
atom_frac 0.2861027489516667 0.6250000000000000 0.3388125074531667 Se
atom_frac 0.6194360822850000 0.6250000000000000 0.3388125074531667 Se
atom_frac 0.9527694156183333 0.6250000000000000 0.3388125074531667 Se
atom_frac 0.2861027489516667 0.7916666666666666 0.3388125074531667 Se
atom_frac 0.6194360822850000 0.7916666666666666 0.3388125074531667 Se
atom_frac 0.9527694156183333 0.7916666666666666 0.3388125074531667 Se
atom_frac 0.2861027489516667 0.9583333333333331 0.3388125074531667 Se
atom_frac 0.6194360822850000 0.9583333333333331 0.3388125074531667 Se
atom_frac 0.9527694156183333 0.9583333333333331 0.3388125074531667 Se
atom_frac 0.2861027489516667 0.1250000000000000 0.5054791741198332 Se
atom_frac 0.6194360822850000 0.1250000000000000 0.5054791741198332 Se
atom_frac 0.9527694156183333 0.1250000000000000 0.5054791741198332 Se
atom_frac 0.2861027489516667 0.2916666666666666 0.5054791741198332 Se
atom_frac 0.6194360822850000 0.2916666666666666 0.5054791741198332 Se
atom_frac 0.9527694156183333 0.2916666666666666 0.5054791741198332 Se
atom_frac 0.2861027489516667 0.4583333333333333 0.5054791741198332 Se
atom_frac 0.6194360822850000 0.4583333333333333 0.5054791741198332 Se
atom_frac 0.9527694156183333 0.4583333333333333 0.5054791741198332 Se
atom_frac 0.2861027489516667 0.6250000000000000 0.5054791741198332 Se
atom_frac 0.6194360822850000 0.6250000000000000 0.5054791741198332 Se
atom_frac 0.9527694156183333 0.6250000000000000 0.5054791741198332 Se
atom_frac 0.2861027489516667 0.7916666666666666 0.5054791741198332 Se
atom_frac 0.6194360822850000 0.7916666666666666 0.5054791741198332 Se
atom_frac 0.9527694156183333 0.7916666666666666 0.5054791741198332 Se
atom_frac 0.2861027489516667 0.9583333333333331 0.5054791741198332 Se
atom_frac 0.6194360822850000 0.9583333333333331 0.5054791741198332 Se
atom_frac 0.9527694156183333 0.9583333333333331 0.5054791741198332 Se
atom_frac 0.2861027489516667 0.1250000000000000 0.6721458407865001 Se
atom_frac 0.6194360822850000 0.1250000000000000 0.6721458407865001 Se
atom_frac 0.9527694156183333 0.1250000000000000 0.6721458407865001 Se
atom_frac 0.2861027489516667 0.2916666666666666 0.6721458407865001 Se
atom_frac 0.6194360822850000 0.2916666666666666 0.6721458407865001 Se
atom_frac 0.9527694156183333 0.2916666666666666 0.6721458407865001 Se
atom_frac 0.2861027489516667 0.4583333333333333 0.6721458407865001 Se
atom_frac 0.6194360822850000 0.4583333333333333 0.6721458407865001 Se
atom_frac 0.9527694156183333 0.4583333333333333 0.6721458407865001 Se
atom_frac 0.2861027489516667 0.6250000000000000 0.6721458407865001 Se
atom_frac 0.6194360822850000 0.6250000000000000 0.6721458407865001 Se
atom_frac 0.9527694156183333 0.6250000000000000 0.6721458407865001 Se
atom_frac 0.2861027489516667 0.7916666666666666 0.6721458407865001 Se
atom_frac 0.6194360822850000 0.7916666666666666 0.6721458407865001 Se
atom_frac 0.9527694156183333 0.7916666666666666 0.6721458407865001 Se
atom_frac 0.2861027489516667 0.9583333333333331 0.6721458407865001 Se
atom_frac 0.6194360822850000 0.9583333333333331 0.6721458407865001 Se
atom_frac 0.9527694156183333 0.9583333333333331 0.6721458407865001 Se
atom_frac 0.2861027489516667 0.1250000000000000 0.8388125074531666 Se
atom_frac 0.6194360822850000 0.1250000000000000 0.8388125074531666 Se
atom_frac 0.9527694156183333 0.1250000000000000 0.8388125074531666 Se
atom_frac 0.2861027489516667 0.2916666666666666 0.8388125074531666 Se
atom_frac 0.6194360822850000 0.2916666666666666 0.8388125074531666 Se
atom_frac 0.9527694156183333 0.2916666666666666 0.8388125074531666 Se
atom_frac 0.2861027489516667 0.4583333333333333 0.8388125074531666 Se
atom_frac 0.6194360822850000 0.4583333333333333 0.8388125074531666 Se
atom_frac 0.9527694156183333 0.4583333333333333 0.8388125074531666 Se
atom_frac 0.2861027489516667 0.6250000000000000 0.8388125074531666 Se
atom_frac 0.6194360822850000 0.6250000000000000 0.8388125074531666 Se
atom_frac 0.9527694156183333 0.6250000000000000 0.8388125074531666 Se
atom_frac 0.2861027489516667 0.7916666666666666 0.8388125074531666 Se
atom_frac 0.6194360822850000 0.7916666666666666 0.8388125074531666 Se
atom_frac 0.9527694156183333 0.7916666666666666 0.8388125074531666 Se
atom_frac 0.2861027489516667 0.9583333333333331 0.8388125074531666 Se
atom_frac 0.6194360822850000 0.9583333333333331 0.8388125074531666 Se
atom_frac 0.9527694156183333 0.9583333333333331 0.8388125074531666 Se
atom_frac 0.0472305843816667 0.0416666666666667 0.1611874925468335 Se
atom_frac 0.3805639177150000 0.0416666666666667 0.1611874925468335 Se
atom_frac 0.7138972510483333 0.0416666666666667 0.1611874925468335 Se
atom_frac 0.0472305843816667 0.2083333333333333 0.1611874925468335 Se
atom_frac 0.3805639177150000 0.2083333333333333 0.1611874925468335 Se
atom_frac 0.7138972510483333 0.2083333333333333 0.1611874925468335 Se
atom_frac 0.0472305843816667 0.3750000000000000 0.1611874925468335 Se
atom_frac 0.3805639177150000 0.3750000000000000 0.1611874925468335 Se
atom_frac 0.7138972510483333 0.3750000000000000 0.1611874925468335 Se
atom_frac 0.0472305843816667 0.5416666666666666 0.1611874925468335 Se
atom_frac 0.3805639177150000 0.5416666666666666 0.1611874925468335 Se
atom_frac 0.7138972510483333 0.5416666666666666 0.1611874925468335 Se
atom_frac 0.0472305843816667 0.7083333333333331 0.1611874925468335 Se
atom_frac 0.3805639177150000 0.7083333333333331 0.1611874925468335 Se
atom_frac 0.7138972510483333 0.7083333333333331 0.1611874925468335 Se
atom_frac 0.0472305843816667 0.8749999999999999 0.1611874925468335 Se
atom_frac 0.3805639177150000 0.8749999999999999 0.1611874925468335 Se
atom_frac 0.7138972510483333 0.8749999999999999 0.1611874925468335 Se
atom_frac 0.0472305843816667 0.0416666666666667 0.3278541592135001 Se
atom_frac 0.3805639177150000 0.0416666666666667 0.3278541592135001 Se
atom_frac 0.7138972510483333 0.0416666666666667 0.3278541592135001 Se
atom_frac 0.0472305843816667 0.2083333333333333 0.3278541592135001 Se
atom_frac 0.3805639177150000 0.2083333333333333 0.3278541592135001 Se
atom_frac 0.7138972510483333 0.2083333333333333 0.3278541592135001 Se
atom_frac 0.0472305843816667 0.3750000000000000 0.3278541592135001 Se
atom_frac 0.3805639177150000 0.3750000000000000 0.3278541592135001 Se
atom_frac 0.7138972510483333 0.3750000000000000 0.3278541592135001 Se
atom_frac 0.0472305843816667 0.5416666666666666 0.3278541592135001 Se
atom_frac 0.3805639177150000 0.5416666666666666 0.3278541592135001 Se
atom_frac 0.7138972510483333 0.5416666666666666 0.3278541592135001 Se
atom_frac 0.0472305843816667 0.7083333333333331 0.3278541592135001 Se
atom_frac 0.3805639177150000 0.7083333333333331 0.3278541592135001 Se
atom_frac 0.7138972510483333 0.7083333333333331 0.3278541592135001 Se
atom_frac 0.0472305843816667 0.8749999999999999 0.3278541592135001 Se
atom_frac 0.3805639177150000 0.8749999999999999 0.3278541592135001 Se
atom_frac 0.7138972510483333 0.8749999999999999 0.3278541592135001 Se
atom_frac 0.0472305843816667 0.0416666666666667 0.4945208258801668 Se
atom_frac 0.3805639177150000 0.0416666666666667 0.4945208258801668 Se
atom_frac 0.7138972510483333 0.0416666666666667 0.4945208258801668 Se
atom_frac 0.0472305843816667 0.2083333333333333 0.4945208258801668 Se
atom_frac 0.3805639177150000 0.2083333333333333 0.4945208258801668 Se
atom_frac 0.7138972510483333 0.2083333333333333 0.4945208258801668 Se
atom_frac 0.0472305843816667 0.3750000000000000 0.4945208258801668 Se
atom_frac 0.3805639177150000 0.3750000000000000 0.4945208258801668 Se
atom_frac 0.7138972510483333 0.3750000000000000 0.4945208258801668 Se
atom_frac 0.0472305843816667 0.5416666666666666 0.4945208258801668 Se
atom_frac 0.3805639177150000 0.5416666666666666 0.4945208258801668 Se
atom_frac 0.7138972510483333 0.5416666666666666 0.4945208258801668 Se
atom_frac 0.0472305843816667 0.7083333333333331 0.4945208258801668 Se
atom_frac 0.3805639177150000 0.7083333333333331 0.4945208258801668 Se
atom_frac 0.7138972510483333 0.7083333333333331 0.4945208258801668 Se
atom_frac 0.0472305843816667 0.8749999999999999 0.4945208258801668 Se
atom_frac 0.3805639177150000 0.8749999999999999 0.4945208258801668 Se
atom_frac 0.7138972510483333 0.8749999999999999 0.4945208258801668 Se
atom_frac 0.0472305843816667 0.0416666666666667 0.6611874925468335 Se
atom_frac 0.3805639177150000 0.0416666666666667 0.6611874925468335 Se
atom_frac 0.7138972510483333 0.0416666666666667 0.6611874925468335 Se
atom_frac 0.0472305843816667 0.2083333333333333 0.6611874925468335 Se
atom_frac 0.3805639177150000 0.2083333333333333 0.6611874925468335 Se
atom_frac 0.7138972510483333 0.2083333333333333 0.6611874925468335 Se
atom_frac 0.0472305843816667 0.3750000000000000 0.6611874925468335 Se
atom_frac 0.3805639177150000 0.3750000000000000 0.6611874925468335 Se
atom_frac 0.7138972510483333 0.3750000000000000 0.6611874925468335 Se
atom_frac 0.0472305843816667 0.5416666666666666 0.6611874925468335 Se
atom_frac 0.3805639177150000 0.5416666666666666 0.6611874925468335 Se
atom_frac 0.7138972510483333 0.5416666666666666 0.6611874925468335 Se
atom_frac 0.0472305843816667 0.7083333333333331 0.6611874925468335 Se
atom_frac 0.3805639177150000 0.7083333333333331 0.6611874925468335 Se
atom_frac 0.7138972510483333 0.7083333333333331 0.6611874925468335 Se
atom_frac 0.0472305843816667 0.8749999999999999 0.6611874925468335 Se
atom_frac 0.3805639177150000 0.8749999999999999 0.6611874925468335 Se
atom_frac 0.7138972510483333 0.8749999999999999 0.6611874925468335 Se
atom_frac 0.0472305843816667 0.0416666666666667 0.8278541592135001 Se
atom_frac 0.3805639177150000 0.0416666666666667 0.8278541592135001 Se
atom_frac 0.7138972510483333 0.0416666666666667 0.8278541592135001 Se
atom_frac 0.0472305843816667 0.2083333333333333 0.8278541592135001 Se
atom_frac 0.3805639177150000 0.2083333333333333 0.8278541592135001 Se
atom_frac 0.7138972510483333 0.2083333333333333 0.8278541592135001 Se
atom_frac 0.0472305843816667 0.3750000000000000 0.8278541592135001 Se
atom_frac 0.3805639177150000 0.3750000000000000 0.8278541592135001 Se
atom_frac 0.7138972510483333 0.3750000000000000 0.8278541592135001 Se
atom_frac 0.0472305843816667 0.5416666666666666 0.8278541592135001 Se
atom_frac 0.3805639177150000 0.5416666666666666 0.8278541592135001 Se
atom_frac 0.7138972510483333 0.5416666666666666 0.8278541592135001 Se
atom_frac 0.0472305843816667 0.7083333333333331 0.8278541592135001 Se
atom_frac 0.3805639177150000 0.7083333333333331 0.8278541592135001 Se
atom_frac 0.7138972510483333 0.7083333333333331 0.8278541592135001 Se
atom_frac 0.0472305843816667 0.8749999999999999 0.8278541592135001 Se
atom_frac 0.3805639177150000 0.8749999999999999 0.8278541592135001 Se
atom_frac 0.7138972510483333 0.8749999999999999 0.8278541592135001 Se
atom_frac 0.0472305843816667 0.0416666666666667 0.9945208258801669 Se
atom_frac 0.3805639177150000 0.0416666666666667 0.9945208258801669 Se
atom_frac 0.7138972510483333 0.0416666666666667 0.9945208258801669 Se
atom_frac 0.0472305843816667 0.2083333333333333 0.9945208258801669 Se
atom_frac 0.3805639177150000 0.2083333333333333 0.9945208258801669 Se
atom_frac 0.7138972510483333 0.2083333333333333 0.9945208258801669 Se
atom_frac 0.0472305843816667 0.3750000000000000 0.9945208258801669 Se
atom_frac 0.3805639177150000 0.3750000000000000 0.9945208258801669 Se
atom_frac 0.7138972510483333 0.3750000000000000 0.9945208258801669 Se
atom_frac 0.0472305843816667 0.5416666666666666 0.9945208258801669 Se
atom_frac 0.3805639177150000 0.5416666666666666 0.9945208258801669 Se
atom_frac 0.7138972510483333 0.5416666666666666 0.9945208258801669 Se
atom_frac 0.0472305843816667 0.7083333333333331 0.9945208258801669 Se
atom_frac 0.3805639177150000 0.7083333333333331 0.9945208258801669 Se
atom_frac 0.7138972510483333 0.7083333333333331 0.9945208258801669 Se
atom_frac 0.0472305843816667 0.8749999999999999 0.9945208258801669 Se
atom_frac 0.3805639177150000 0.8749999999999999 0.9945208258801669 Se
atom_frac 0.7138972510483333 0.8749999999999999 0.9945208258801669 Se
atom_frac 0.2138972510483333 0.0416666666666667 0.0888125074531666 Se
atom_frac 0.5472305843816666 0.0416666666666667 0.0888125074531666 Se
atom_frac 0.8805639177150001 0.0416666666666667 0.0888125074531666 Se
atom_frac 0.2138972510483333 0.2083333333333333 0.0888125074531666 Se
atom_frac 0.5472305843816666 0.2083333333333333 0.0888125074531666 Se
atom_frac 0.8805639177150001 0.2083333333333333 0.0888125074531666 Se
atom_frac 0.2138972510483333 0.3750000000000000 0.0888125074531666 Se
atom_frac 0.5472305843816666 0.3750000000000000 0.0888125074531666 Se
atom_frac 0.8805639177150001 0.3750000000000000 0.0888125074531666 Se
atom_frac 0.2138972510483333 0.5416666666666666 0.0888125074531666 Se
atom_frac 0.5472305843816666 0.5416666666666666 0.0888125074531666 Se
atom_frac 0.8805639177150001 0.5416666666666666 0.0888125074531666 Se
atom_frac 0.2138972510483333 0.7083333333333331 0.0888125074531666 Se
atom_frac 0.5472305843816666 0.7083333333333331 0.0888125074531666 Se
atom_frac 0.8805639177150001 0.7083333333333331 0.0888125074531666 Se
atom_frac 0.2138972510483333 0.8749999999999999 0.0888125074531666 Se
atom_frac 0.5472305843816666 0.8749999999999999 0.0888125074531666 Se
atom_frac 0.8805639177150001 0.8749999999999999 0.0888125074531666 Se
atom_frac 0.2138972510483333 0.0416666666666667 0.2554791741198333 Se
atom_frac 0.5472305843816666 0.0416666666666667 0.2554791741198333 Se
atom_frac 0.8805639177150001 0.0416666666666667 0.2554791741198333 Se
atom_frac 0.2138972510483333 0.2083333333333333 0.2554791741198333 Se
atom_frac 0.5472305843816666 0.2083333333333333 0.2554791741198333 Se
atom_frac 0.8805639177150001 0.2083333333333333 0.2554791741198333 Se
atom_frac 0.2138972510483333 0.3750000000000000 0.2554791741198333 Se
atom_frac 0.5472305843816666 0.3750000000000000 0.2554791741198333 Se
atom_frac 0.8805639177150001 0.3750000000000000 0.2554791741198333 Se
atom_frac 0.2138972510483333 0.5416666666666666 0.2554791741198333 Se
atom_frac 0.5472305843816666 0.5416666666666666 0.2554791741198333 Se
atom_frac 0.8805639177150001 0.5416666666666666 0.2554791741198333 Se
atom_frac 0.2138972510483333 0.7083333333333331 0.2554791741198333 Se
atom_frac 0.5472305843816666 0.7083333333333331 0.2554791741198333 Se
atom_frac 0.8805639177150001 0.7083333333333331 0.2554791741198333 Se
atom_frac 0.2138972510483333 0.8749999999999999 0.2554791741198333 Se
atom_frac 0.5472305843816666 0.8749999999999999 0.2554791741198333 Se
atom_frac 0.8805639177150001 0.8749999999999999 0.2554791741198333 Se
atom_frac 0.2138972510483333 0.0416666666666667 0.4221458407864999 Se
atom_frac 0.5472305843816666 0.0416666666666667 0.4221458407864999 Se
atom_frac 0.8805639177150001 0.0416666666666667 0.4221458407864999 Se
atom_frac 0.2138972510483333 0.2083333333333333 0.4221458407864999 Se
atom_frac 0.5472305843816666 0.2083333333333333 0.4221458407864999 Se
atom_frac 0.8805639177150001 0.2083333333333333 0.4221458407864999 Se
atom_frac 0.2138972510483333 0.3750000000000000 0.4221458407864999 Se
atom_frac 0.5472305843816666 0.3750000000000000 0.4221458407864999 Se
atom_frac 0.8805639177150001 0.3750000000000000 0.4221458407864999 Se
atom_frac 0.2138972510483333 0.5416666666666666 0.4221458407864999 Se
atom_frac 0.5472305843816666 0.5416666666666666 0.4221458407864999 Se
atom_frac 0.8805639177150001 0.5416666666666666 0.4221458407864999 Se
atom_frac 0.2138972510483333 0.7083333333333331 0.4221458407864999 Se
atom_frac 0.5472305843816666 0.7083333333333331 0.4221458407864999 Se
atom_frac 0.8805639177150001 0.7083333333333331 0.4221458407864999 Se
atom_frac 0.2138972510483333 0.8749999999999999 0.4221458407864999 Se
atom_frac 0.5472305843816666 0.8749999999999999 0.4221458407864999 Se
atom_frac 0.8805639177150001 0.8749999999999999 0.4221458407864999 Se
atom_frac 0.2138972510483333 0.0416666666666667 0.5888125074531665 Se
atom_frac 0.5472305843816666 0.0416666666666667 0.5888125074531665 Se
atom_frac 0.8805639177150001 0.0416666666666667 0.5888125074531665 Se
atom_frac 0.2138972510483333 0.2083333333333333 0.5888125074531665 Se
atom_frac 0.5472305843816666 0.2083333333333333 0.5888125074531665 Se
atom_frac 0.8805639177150001 0.2083333333333333 0.5888125074531665 Se
atom_frac 0.2138972510483333 0.3750000000000000 0.5888125074531665 Se
atom_frac 0.5472305843816666 0.3750000000000000 0.5888125074531665 Se
atom_frac 0.8805639177150001 0.3750000000000000 0.5888125074531665 Se
atom_frac 0.2138972510483333 0.5416666666666666 0.5888125074531665 Se
atom_frac 0.5472305843816666 0.5416666666666666 0.5888125074531665 Se
atom_frac 0.8805639177150001 0.5416666666666666 0.5888125074531665 Se
atom_frac 0.2138972510483333 0.7083333333333331 0.5888125074531665 Se
atom_frac 0.5472305843816666 0.7083333333333331 0.5888125074531665 Se
atom_frac 0.8805639177150001 0.7083333333333331 0.5888125074531665 Se
atom_frac 0.2138972510483333 0.8749999999999999 0.5888125074531665 Se
atom_frac 0.5472305843816666 0.8749999999999999 0.5888125074531665 Se
atom_frac 0.8805639177150001 0.8749999999999999 0.5888125074531665 Se
atom_frac 0.2138972510483333 0.0416666666666667 0.7554791741198332 Se
atom_frac 0.5472305843816666 0.0416666666666667 0.7554791741198332 Se
atom_frac 0.8805639177150001 0.0416666666666667 0.7554791741198332 Se
atom_frac 0.2138972510483333 0.2083333333333333 0.7554791741198332 Se
atom_frac 0.5472305843816666 0.2083333333333333 0.7554791741198332 Se
atom_frac 0.8805639177150001 0.2083333333333333 0.7554791741198332 Se
atom_frac 0.2138972510483333 0.3750000000000000 0.7554791741198332 Se
atom_frac 0.5472305843816666 0.3750000000000000 0.7554791741198332 Se
atom_frac 0.8805639177150001 0.3750000000000000 0.7554791741198332 Se
atom_frac 0.2138972510483333 0.5416666666666666 0.7554791741198332 Se
atom_frac 0.5472305843816666 0.5416666666666666 0.7554791741198332 Se
atom_frac 0.8805639177150001 0.5416666666666666 0.7554791741198332 Se
atom_frac 0.2138972510483333 0.7083333333333331 0.7554791741198332 Se
atom_frac 0.5472305843816666 0.7083333333333331 0.7554791741198332 Se
atom_frac 0.8805639177150001 0.7083333333333331 0.7554791741198332 Se
atom_frac 0.2138972510483333 0.8749999999999999 0.7554791741198332 Se
atom_frac 0.5472305843816666 0.8749999999999999 0.7554791741198332 Se
atom_frac 0.8805639177150001 0.8749999999999999 0.7554791741198332 Se
atom_frac 0.2138972510483333 0.0416666666666667 0.9221458407864999 Se
atom_frac 0.5472305843816666 0.0416666666666667 0.9221458407864999 Se
atom_frac 0.8805639177150001 0.0416666666666667 0.9221458407864999 Se
atom_frac 0.2138972510483333 0.2083333333333333 0.9221458407864999 Se
atom_frac 0.5472305843816666 0.2083333333333333 0.9221458407864999 Se
atom_frac 0.8805639177150001 0.2083333333333333 0.9221458407864999 Se
atom_frac 0.2138972510483333 0.3750000000000000 0.9221458407864999 Se
atom_frac 0.5472305843816666 0.3750000000000000 0.9221458407864999 Se
atom_frac 0.8805639177150001 0.3750000000000000 0.9221458407864999 Se
atom_frac 0.2138972510483333 0.5416666666666666 0.9221458407864999 Se
atom_frac 0.5472305843816666 0.5416666666666666 0.9221458407864999 Se
atom_frac 0.8805639177150001 0.5416666666666666 0.9221458407864999 Se
atom_frac 0.2138972510483333 0.7083333333333331 0.9221458407864999 Se
atom_frac 0.5472305843816666 0.7083333333333331 0.9221458407864999 Se
atom_frac 0.8805639177150001 0.7083333333333331 0.9221458407864999 Se
atom_frac 0.2138972510483333 0.8749999999999999 0.9221458407864999 Se
atom_frac 0.5472305843816666 0.8749999999999999 0.9221458407864999 Se
atom_frac 0.8805639177150001 0.8749999999999999 0.9221458407864999 Se
atom_frac 0.1194360822849999 0.1250000000000000 0.0778541592135001 Se
atom_frac 0.4527694156183333 0.1250000000000000 0.0778541592135001 Se
atom_frac 0.7861027489516665 0.1250000000000000 0.0778541592135001 Se
atom_frac 0.1194360822849999 0.2916666666666666 0.0778541592135001 Se
atom_frac 0.4527694156183333 0.2916666666666666 0.0778541592135001 Se
atom_frac 0.7861027489516665 0.2916666666666666 0.0778541592135001 Se
atom_frac 0.1194360822849999 0.4583333333333333 0.0778541592135001 Se
atom_frac 0.4527694156183333 0.4583333333333333 0.0778541592135001 Se
atom_frac 0.7861027489516665 0.4583333333333333 0.0778541592135001 Se
atom_frac 0.1194360822849999 0.6250000000000000 0.0778541592135001 Se
atom_frac 0.4527694156183333 0.6250000000000000 0.0778541592135001 Se
atom_frac 0.7861027489516665 0.6250000000000000 0.0778541592135001 Se
atom_frac 0.1194360822849999 0.7916666666666666 0.0778541592135001 Se
atom_frac 0.4527694156183333 0.7916666666666666 0.0778541592135001 Se
atom_frac 0.7861027489516665 0.7916666666666666 0.0778541592135001 Se
atom_frac 0.1194360822849999 0.9583333333333331 0.0778541592135001 Se
atom_frac 0.4527694156183333 0.9583333333333331 0.0778541592135001 Se
atom_frac 0.7861027489516665 0.9583333333333331 0.0778541592135001 Se
atom_frac 0.1194360822849999 0.1250000000000000 0.2445208258801668 Se
atom_frac 0.4527694156183333 0.1250000000000000 0.2445208258801668 Se
atom_frac 0.7861027489516665 0.1250000000000000 0.2445208258801668 Se
atom_frac 0.1194360822849999 0.2916666666666666 0.2445208258801668 Se
atom_frac 0.4527694156183333 0.2916666666666666 0.2445208258801668 Se
atom_frac 0.7861027489516665 0.2916666666666666 0.2445208258801668 Se
atom_frac 0.1194360822849999 0.4583333333333333 0.2445208258801668 Se
atom_frac 0.4527694156183333 0.4583333333333333 0.2445208258801668 Se
atom_frac 0.7861027489516665 0.4583333333333333 0.2445208258801668 Se
atom_frac 0.1194360822849999 0.6250000000000000 0.2445208258801668 Se
atom_frac 0.4527694156183333 0.6250000000000000 0.2445208258801668 Se
atom_frac 0.7861027489516665 0.6250000000000000 0.2445208258801668 Se
atom_frac 0.1194360822849999 0.7916666666666666 0.2445208258801668 Se
atom_frac 0.4527694156183333 0.7916666666666666 0.2445208258801668 Se
atom_frac 0.7861027489516665 0.7916666666666666 0.2445208258801668 Se
atom_frac 0.1194360822849999 0.9583333333333331 0.2445208258801668 Se
atom_frac 0.4527694156183333 0.9583333333333331 0.2445208258801668 Se
atom_frac 0.7861027489516665 0.9583333333333331 0.2445208258801668 Se
atom_frac 0.1194360822849999 0.1250000000000000 0.4111874925468334 Se
atom_frac 0.4527694156183333 0.1250000000000000 0.4111874925468334 Se
atom_frac 0.7861027489516665 0.1250000000000000 0.4111874925468334 Se
atom_frac 0.1194360822849999 0.2916666666666666 0.4111874925468334 Se
atom_frac 0.4527694156183333 0.2916666666666666 0.4111874925468334 Se
atom_frac 0.7861027489516665 0.2916666666666666 0.4111874925468334 Se
atom_frac 0.1194360822849999 0.4583333333333333 0.4111874925468334 Se
atom_frac 0.4527694156183333 0.4583333333333333 0.4111874925468334 Se
atom_frac 0.7861027489516665 0.4583333333333333 0.4111874925468334 Se
atom_frac 0.1194360822849999 0.6250000000000000 0.4111874925468334 Se
atom_frac 0.4527694156183333 0.6250000000000000 0.4111874925468334 Se
atom_frac 0.7861027489516665 0.6250000000000000 0.4111874925468334 Se
atom_frac 0.1194360822849999 0.7916666666666666 0.4111874925468334 Se
atom_frac 0.4527694156183333 0.7916666666666666 0.4111874925468334 Se
atom_frac 0.7861027489516665 0.7916666666666666 0.4111874925468334 Se
atom_frac 0.1194360822849999 0.9583333333333331 0.4111874925468334 Se
atom_frac 0.4527694156183333 0.9583333333333331 0.4111874925468334 Se
atom_frac 0.7861027489516665 0.9583333333333331 0.4111874925468334 Se
atom_frac 0.1194360822849999 0.1250000000000000 0.5778541592135001 Se
atom_frac 0.4527694156183333 0.1250000000000000 0.5778541592135001 Se
atom_frac 0.7861027489516665 0.1250000000000000 0.5778541592135001 Se
atom_frac 0.1194360822849999 0.2916666666666666 0.5778541592135001 Se
atom_frac 0.4527694156183333 0.2916666666666666 0.5778541592135001 Se
atom_frac 0.7861027489516665 0.2916666666666666 0.5778541592135001 Se
atom_frac 0.1194360822849999 0.4583333333333333 0.5778541592135001 Se
atom_frac 0.4527694156183333 0.4583333333333333 0.5778541592135001 Se
atom_frac 0.7861027489516665 0.4583333333333333 0.5778541592135001 Se
atom_frac 0.1194360822849999 0.6250000000000000 0.5778541592135001 Se
atom_frac 0.4527694156183333 0.6250000000000000 0.5778541592135001 Se
atom_frac 0.7861027489516665 0.6250000000000000 0.5778541592135001 Se
atom_frac 0.1194360822849999 0.7916666666666666 0.5778541592135001 Se
atom_frac 0.4527694156183333 0.7916666666666666 0.5778541592135001 Se
atom_frac 0.7861027489516665 0.7916666666666666 0.5778541592135001 Se
atom_frac 0.1194360822849999 0.9583333333333331 0.5778541592135001 Se
atom_frac 0.4527694156183333 0.9583333333333331 0.5778541592135001 Se
atom_frac 0.7861027489516665 0.9583333333333331 0.5778541592135001 Se
atom_frac 0.1194360822849999 0.1250000000000000 0.7445208258801668 Se
atom_frac 0.4527694156183333 0.1250000000000000 0.7445208258801668 Se
atom_frac 0.7861027489516665 0.1250000000000000 0.7445208258801668 Se
atom_frac 0.1194360822849999 0.2916666666666666 0.7445208258801668 Se
atom_frac 0.4527694156183333 0.2916666666666666 0.7445208258801668 Se
atom_frac 0.7861027489516665 0.2916666666666666 0.7445208258801668 Se
atom_frac 0.1194360822849999 0.4583333333333333 0.7445208258801668 Se
atom_frac 0.4527694156183333 0.4583333333333333 0.7445208258801668 Se
atom_frac 0.7861027489516665 0.4583333333333333 0.7445208258801668 Se
atom_frac 0.1194360822849999 0.6250000000000000 0.7445208258801668 Se
atom_frac 0.4527694156183333 0.6250000000000000 0.7445208258801668 Se
atom_frac 0.7861027489516665 0.6250000000000000 0.7445208258801668 Se
atom_frac 0.1194360822849999 0.7916666666666666 0.7445208258801668 Se
atom_frac 0.4527694156183333 0.7916666666666666 0.7445208258801668 Se
atom_frac 0.7861027489516665 0.7916666666666666 0.7445208258801668 Se
atom_frac 0.1194360822849999 0.9583333333333331 0.7445208258801668 Se
atom_frac 0.4527694156183333 0.9583333333333331 0.7445208258801668 Se
atom_frac 0.7861027489516665 0.9583333333333331 0.7445208258801668 Se
atom_frac 0.1194360822849999 0.1250000000000000 0.9111874925468336 Se
atom_frac 0.4527694156183333 0.1250000000000000 0.9111874925468336 Se
atom_frac 0.7861027489516665 0.1250000000000000 0.9111874925468336 Se
atom_frac 0.1194360822849999 0.2916666666666666 0.9111874925468336 Se