#=======================================================
# FHI-aims file: eos/007/geometry.in
# Created using the Atomic Simulation Environment (ASE)
# Mon Apr 17 17:11:54 2023
#=======================================================
lattice_vector 11.5313049691118632 -0.0000000000000000 0.0000000000000000 
lattice_vector 0.0000000000000000 4.1695711856352498 0.0000000000000000 
lattice_vector 0.0000000000000000 0.0000000000000000 4.3661411480210717 
atom 9.8974141519887517 3.1271783892264371 0.1435370854906588 Se
atom 1.6338908171231110 1.0423927964088124 4.2226040625304160 Se
atom 7.3995433016790413 1.0423927964088124 2.3266076595011920 Se
atom 4.1317616674328193 3.1271783892264371 2.0395334885198801 Se
atom 1.3830865969398229 3.1271783892264371 1.7376213689760533 Sn
atom 10.1482183721720585 1.0423927964088124 2.6285197790450190 Sn
atom 4.3825658876161082 1.0423927964088124 3.9206919429865894 Sn
atom 7.1487390814957523 3.1271783892264371 0.4454492050344869 Sn
