#=======================================================
# FHI-aims file: eos/000/geometry.in
# Created using the Atomic Simulation Environment (ASE)
# Mon Apr 17 17:07:11 2023
#=======================================================
lattice_vector 11.4503429482655399 -0.0000000000000000 0.0000000000000000 
lattice_vector 0.0000000000000000 4.1402963628674998 0.0000000000000000 
lattice_vector 0.0000000000000000 0.0000000000000000 4.3354861951262400 
atom 9.8279237818143059 3.1052222721506242 0.1425293025433824 Se
atom 1.6224191664512335 1.0350740907168750 4.1929568925828606 Se
atom 7.3475906405840021 1.0350740907168750 2.3102724001064998 Se
atom 4.1027523076815360 3.1052222721506242 2.0252137950197406 Se
atom 1.3733758585460627 3.1052222721506242 1.7254214195449278 Sn
atom 10.0769670897194956 1.0350740907168750 2.6100647755813129 Sn
atom 4.3517956155867070 1.0350740907168750 3.8931645171080480 Sn
atom 7.0985473326788311 3.1052222721506242 0.4423216780181966 Sn
