#=======================================================
# FHI-aims file: /Users/flokno/working/projects/so3krates/dev_SnSe/test_10_EOS_easy/finer/so3krates_L2/eos/001/relaxation/geometry.in.next_step
# Created using the Atomic Simulation Environment (ASE)
# Mon Apr 17 17:12:58 2023

# Additional information:
#  Relaxed with BFGS, fmax=0.100 meV/AA
#  nsteps = 22
#  residual force  = 0.020687 meV/AA
#=======================================================
lattice_vector 11.4619089512440002 -0.0000000000000000 0.0000000000000000 
lattice_vector 0.0000000000000000 4.1444784804059998 0.0000000000000000 
lattice_vector 0.0000000000000000 0.0000000000000000 4.3398654741109999 
atom_frac 0.8587575221179999 0.7500000000000000 0.0310392275280000 Se
atom_frac 0.1412424778820000 0.2500000000000000 0.9689607724720000 Se
atom_frac 0.6412424778820000 0.2500000000000000 0.5310392275280000 Se
atom_frac 0.3587575221180000 0.7500000000000000 0.4689607724720001 Se
atom_frac 0.1187330609770000 0.7500000000000000 0.4069793671950000 Sn
atom_frac 0.8812669390229999 0.2500000000000000 0.5930206328049999 Sn
atom_frac 0.3812669390230000 0.2500000000000000 0.9069793671950001 Sn
atom_frac 0.6187330609770000 0.7500000000000000 0.0930206328050000 Sn
