#=======================================================
# FHI-aims file: /Users/flokno/working/projects/so3krates/dev_SnSe/test_10_EOS_easy/so3krates_L2/eos/010/relaxation/geometry.in.next_step
# Created using the Atomic Simulation Environment (ASE)
# Thu Apr 13 17:20:48 2023

# Additional information:
#  Relaxed with BFGS, fmax=0.100 meV/AA
#  nsteps = 19
#  residual force  = 0.021838 meV/AA
#=======================================================
lattice_vector 11.7973230376070006 -0.0000000000000000 0.0000000000000000 
lattice_vector 0.0000000000000000 4.2657598890150004 0.0000000000000000 
lattice_vector 0.0000000000000000 0.0000000000000000 4.4668645646760003 
atom_frac 0.8574761587250000 0.7499999999999999 0.0344966788610000 Se
atom_frac 0.1425238412750000 0.2500000000000000 0.9655033211389999 Se
atom_frac 0.6425238412750000 0.2500000000000000 0.5344966788600000 Se
atom_frac 0.3574761587250000 0.7499999999999999 0.4655033211389999 Se
atom_frac 0.1239708448410000 0.7499999999999999 0.3855291180300000 Sn
atom_frac 0.8760291551590000 0.2500000000000000 0.6144708819690000 Sn
atom_frac 0.3760291551590000 0.2500000000000000 0.8855291180300000 Sn
atom_frac 0.6239708448410000 0.7499999999999999 0.1144708819700000 Sn
