#=======================================================
# FHI-aims file: /Users/flokno/working/projects/so3krates/dev_SnSe/test_10_EOS_easy/finer/so3krates_L3/eos/002/relaxation/geometry.in.next_step
# Created using the Atomic Simulation Environment (ASE)
# Mon Apr 17 17:20:01 2023

# Additional information:
#  Relaxed with BFGS, fmax=0.100 meV/AA
#  nsteps = 21
#  residual force  = 0.035761 meV/AA
#=======================================================
lattice_vector 11.4734749542220005 -0.0000000000000000 0.0000000000000000 
lattice_vector 0.0000000000000000 4.1486605979439997 0.0000000000000000 
lattice_vector 0.0000000000000000 0.0000000000000000 4.3442447530959996 
atom_frac 0.8589645858940000 0.7500000000000000 0.0325706188290000 Se
atom_frac 0.1410354141060000 0.2500000000000000 0.9674293811709999 Se
atom_frac 0.6410354141060000 0.2500000000000000 0.5325706188290000 Se
atom_frac 0.3589645858940000 0.7500000000000000 0.4674293811710000 Se
atom_frac 0.1189635581110000 0.7500000000000000 0.4045235586880000 Sn
atom_frac 0.8810364418889999 0.2500000000000000 0.5954764413119999 Sn
atom_frac 0.3810364418890000 0.2500000000000000 0.9045235586880001 Sn
atom_frac 0.6189635581110000 0.7500000000000000 0.0954764413120000 Sn
