#=======================================================
# FHI-aims file: /Users/flokno/working/projects/so3krates/dev_SnSe/test_10_EOS_easy/finer/so3krates_L3/eos/018/relaxation/geometry.in.next_step
# Created using the Atomic Simulation Environment (ASE)
# Mon Apr 17 17:25:41 2023

# Additional information:
#  Relaxed with BFGS, fmax=0.100 meV/AA
#  nsteps = 22
#  residual force  = 0.020407 meV/AA
#=======================================================
lattice_vector 11.6585310018699992 -0.0000000000000000 0.0000000000000000 
lattice_vector 0.0000000000000000 4.2155744785560003 0.0000000000000000 
lattice_vector 0.0000000000000000 0.0000000000000000 4.4143132168559998 
atom_frac 0.8579185074980001 0.7500000000000000 0.0331518692090000 Se
atom_frac 0.1420814925020000 0.2500000000000000 0.9668481307910000 Se
atom_frac 0.6420814925020000 0.2500000000000000 0.5331518692090000 Se
atom_frac 0.3579185074980000 0.7500000000000000 0.4668481307910001 Se
atom_frac 0.1213223941460000 0.7500000000000000 0.3919452221370000 Sn
atom_frac 0.8786776058540000 0.2500000000000000 0.6080547778630000 Sn
atom_frac 0.3786776058540000 0.2500000000000000 0.8919452221370000 Sn
atom_frac 0.6213223941460000 0.7500000000000000 0.1080547778630000 Sn
