#=======================================================
# FHI-aims file: /Users/flokno/working/projects/so3krates/dev_SnSe/test_10_EOS_easy/so3krates_L1/eos/010/relaxation/geometry.in.next_step
# Created using the Atomic Simulation Environment (ASE)
# Fri Apr 14 11:26:07 2023

# Additional information:
#  Relaxed with BFGS, fmax=0.100 meV/AA
#  nsteps = 22
#  residual force  = 0.066352 meV/AA
#=======================================================
lattice_vector 11.7973230376070006 -0.0000000000000000 0.0000000000000000 
lattice_vector 0.0000000000000000 4.2657598890150004 0.0000000000000000 
lattice_vector 0.0000000000000000 0.0000000000000000 4.4668645646760003 
atom_frac 0.8583309233200000 0.7499999999999999 0.0426696908720000 Se
atom_frac 0.1416690766800000 0.2500000000000000 0.9573303091280000 Se
atom_frac 0.6416690766800000 0.2500000000000000 0.5426696908710000 Se
atom_frac 0.3583309233200000 0.7499999999999999 0.4573303091280000 Se
atom_frac 0.1249874784770000 0.7499999999999999 0.3766295954190000 Sn
atom_frac 0.8750125215229999 0.2500000000000000 0.6233704045810000 Sn
atom_frac 0.3750125215230000 0.2500000000000000 0.8766295954190000 Sn
atom_frac 0.6249874784770000 0.7499999999999999 0.1233704045810000 Sn
