#=======================================================
# FHI-aims file: /cfs/klemming/projects/snic/snic2021-1-10/dardel-test/flokno/projects/so3krates/dev_SnSe/test_10_EOS_easy/finer/dft_01/eos/019/relaxation/geometry.in.next_step
# Created using the Atomic Simulation Environment (ASE)
# Mon Apr 17 17:30:55 2023

# Additional information:
#  Relaxed with BFGS, fmax=0.100 meV/AA
#  nsteps = 22
#  residual force  = 0.033796 meV/AA
#=======================================================
lattice_vector 11.6700970048479995 -0.0000000000000000 0.0000000000000000 
lattice_vector 0.0000000000000000 4.2197565960940002 0.0000000000000000 
lattice_vector 0.0000000000000000 0.0000000000000000 4.4186924958410003 
atom_frac 0.8578673435920000 0.7500000144230000 0.0315844297860000 Se
atom_frac 0.1421326729860000 0.2499999599930000 0.9684155538819998 Se
atom_frac 0.6421326536049999 0.2500000868790000 0.5315845617279999 Se
atom_frac 0.3578673571450000 0.7500000550790000 0.4684155650100000 Se
atom_frac 0.1216246480960000 0.7500000714610001 0.3939531468890000 Sn
atom_frac 0.8783753324079999 0.2499998612400000 0.6060468045850000 Sn
atom_frac 0.3783753457019999 0.2500000071370000 0.8939531963250000 Sn
atom_frac 0.6216246464660000 0.7499999437890000 0.1060467417950000 Sn
