#=======================================================
# FHI-aims file: ./geometry.in
# Created using the Atomic Simulation Environment (ASE)
# Mon Apr 17 17:26:48 2023
#=======================================================
lattice_vector 11.6238329929362294 -0.0000000000000000 0.0000000000000000 
lattice_vector 0.0000000000000000 4.2030281259412492 0.0000000000000000 
lattice_vector 0.0000000000000000 0.0000000000000000 4.4011753799008790 
atom_frac 0.8583082468550000 0.7499999999999998 0.0328750447190000 Se
atom_frac 0.1416917531450001 0.2499999999999999 0.9671249552810007 Se
atom_frac 0.6416917531450000 0.2499999999999999 0.5328750447189994 Se
atom_frac 0.3583082468549998 0.7499999999999998 0.4671249552810007 Se
atom_frac 0.1199418973520000 0.7499999999999998 0.3979764533640009 Sn
atom_frac 0.8800581026480016 0.2499999999999999 0.6020235466359993 Sn
atom_frac 0.3800581026479999 0.2499999999999999 0.8979764533640010 Sn
atom_frac 0.6199418973519999 0.7499999999999998 0.1020235466360001 Sn
