#=======================================================
# FHI-aims file: /cfs/klemming/projects/snic/snic2021-1-10/dardel-test/flokno/projects/so3krates/dev_SnSe/test_10_EOS_easy/finer/dft_01/eos/010/relaxation/geometry.in.next_step
# Created using the Atomic Simulation Environment (ASE)
# Mon Apr 17 17:18:22 2023

# Additional information:
#  Relaxed with BFGS, fmax=0.100 meV/AA
#  nsteps = 2
#  residual force  = 0.059343 meV/AA
#=======================================================
lattice_vector 11.5660029780460007 -0.0000000000000000 0.0000000000000000 
lattice_vector 0.0000000000000000 4.1821175382500000 0.0000000000000000 
lattice_vector 0.0000000000000000 0.0000000000000000 4.3792789849759997 
atom_frac 0.8583087944800000 0.7499999986830000 0.0328784350490000 Se
atom_frac 0.1416912043200000 0.2499999942400000 0.9671215656520000 Se
atom_frac 0.6416912016720000 0.2499999995610000 0.5328784328090000 Se
atom_frac 0.3583087963620000 0.7499999974949999 0.4671215654970000 Se
atom_frac 0.1199394625930000 0.7499999945830000 0.3979809888650000 Sn
atom_frac 0.8800605354100000 0.2500000074080000 0.6020190134159999 Sn
atom_frac 0.3800605520010000 0.2500000101120000 0.8979810034560000 Sn
atom_frac 0.6199394531619999 0.7499999979169999 0.1020189952570000 Sn
