#=======================================================
# FHI-aims file: /Users/flokno/working/projects/so3krates/dev_SnSe/test_10_EOS_easy/so3krates_L2/eos/002/relaxation/geometry.in.next_step
# Created using the Atomic Simulation Environment (ASE)
# Thu Apr 13 17:18:40 2023

# Additional information:
#  Relaxed with BFGS, fmax=0.100 meV/AA
#  nsteps = 22
#  residual force  = 0.041818 meV/AA
#=======================================================
lattice_vector 11.4272109423089994 -0.0000000000000000 0.0000000000000000 
lattice_vector 0.0000000000000000 4.1319321277909999 0.0000000000000000 
lattice_vector 0.0000000000000000 0.0000000000000000 4.3267276371560000 
atom_frac 0.8588905419560000 0.7500000000000000 0.0307393682880000 Se
atom_frac 0.1411094580450000 0.2500000000000000 0.9692606317120001 Se
atom_frac 0.6411094580450000 0.2500000000000000 0.5307393682880001 Se
atom_frac 0.3588905419560001 0.7500000000000000 0.4692606317120000 Se
atom_frac 0.1183105500590000 0.7500000000000000 0.4095974747660000 Sn
atom_frac 0.8816894499410001 0.2500000000000000 0.5904025252340001 Sn
atom_frac 0.3816894499410000 0.2500000000000000 0.9095974747660001 Sn
atom_frac 0.6183105500590002 0.7500000000000000 0.0904025252340000 Sn
