#=======================================================
# FHI-aims file: /cfs/klemming/projects/snic/snic2021-1-10/dardel-test/flokno/projects/so3krates/dev_SnSe/test_10_EOS_easy/finer/dft_01/eos/009/relaxation/geometry.in.next_step
# Created using the Atomic Simulation Environment (ASE)
# Mon Apr 17 17:20:26 2023

# Additional information:
#  Relaxed with BFGS, fmax=0.100 meV/AA
#  nsteps = 18
#  residual force  = 0.061893 meV/AA
#=======================================================
lattice_vector 11.5544369750680005 -0.0000000000000000 0.0000000000000000 
lattice_vector 0.0000000000000000 4.1779354207120001 0.0000000000000000 
lattice_vector 0.0000000000000000 0.0000000000000000 4.3748997059910000 
atom_frac 0.8583537594280000 0.7499999614780000 0.0329735605920000 Se
atom_frac 0.1416462632920000 0.2499999837770000 0.9670266143779999 Se
atom_frac 0.6416461722090000 0.2500000485830000 0.5329733440200000 Se
atom_frac 0.3583538251340000 0.7499999813520000 0.4670267154970000 Se
atom_frac 0.1197619122670000 0.7500000632490000 0.3984867056120000 Sn
atom_frac 0.8802381716840000 0.2500000388880000 0.6015131830629999 Sn
atom_frac 0.3802380093450000 0.2499999191070000 0.8984867709669999 Sn
atom_frac 0.6197618866400000 0.7500000035660001 0.1015131058720000 Sn
