#=======================================================
# FHI-aims file: /Users/flokno/working/projects/so3krates/dev_SnSe/test_10_EOS_easy/finer/so3krates_L1/eos/001/relaxation/geometry.in.next_step
# Created using the Atomic Simulation Environment (ASE)
# Mon Apr 17 17:07:45 2023

# Additional information:
#  Relaxed with BFGS, fmax=0.100 meV/AA
#  nsteps = 22
#  residual force  = 0.034400 meV/AA
#=======================================================
lattice_vector 11.4619089512440002 -0.0000000000000000 0.0000000000000000 
lattice_vector 0.0000000000000000 4.1444784804059998 0.0000000000000000 
lattice_vector 0.0000000000000000 0.0000000000000000 4.3398654741109999 
atom_frac 0.8588323301730000 0.7500000000000000 0.0273032344420000 Se
atom_frac 0.1411676698270000 0.2500000000000000 0.9726967655580001 Se
atom_frac 0.6411676698270000 0.2500000000000000 0.5273032344420000 Se
atom_frac 0.3588323301730000 0.7500000000000000 0.4726967655580000 Se
atom_frac 0.1188437790900000 0.7500000000000000 0.4119737963460000 Sn
atom_frac 0.8811562209099999 0.2500000000000000 0.5880262036540000 Sn
atom_frac 0.3811562209100000 0.2500000000000000 0.9119737963460000 Sn
atom_frac 0.6188437790900000 0.7500000000000000 0.0880262036540000 Sn
