#=======================================================
# FHI-aims file: /cfs/klemming/projects/snic/snic2021-1-10/dardel-test/flokno/projects/so3krates/dev_SnSe/test_10_EOS_easy/dft_01/eos/010/relaxation/geometry.in.next_step
# Created using the Atomic Simulation Environment (ASE)
# Fri Apr 14 09:42:02 2023

# Additional information:
#  Relaxed with BFGS, fmax=0.100 meV/AA
#  nsteps = 16
#  residual force  = 0.025944 meV/AA
#=======================================================
lattice_vector 11.7973230376070006 -0.0000000000000000 0.0000000000000000 
lattice_vector 0.0000000000000000 4.2657598890150004 0.0000000000000000 
lattice_vector 0.0000000000000000 0.0000000000000000 4.4668645646760003 
atom_frac 0.8572743891239999 0.7500006256849999 0.0308583451800000 Se
atom_frac 0.1427256628450000 0.2499999057060000 0.9691415113700002 Se
atom_frac 0.6427256569340000 0.2500001141290000 0.5308587404060000 Se
atom_frac 0.3572742735910000 0.7499994455040000 0.4691412193290000 Se
atom_frac 0.1238321335190000 0.7500000250350000 0.3881046236290000 Sn
atom_frac 0.8761679345929999 0.2499994124360000 0.6118956333630000 Sn
atom_frac 0.3761678720380001 0.2500006935350000 0.8881048458110000 Sn
atom_frac 0.6238320773550000 0.7499997779690000 0.1118950809110000 Sn
