#=======================================================
# FHI-aims file: /cfs/klemming/projects/snic/snic2021-1-10/dardel-test/flokno/projects/so3krates/dev_SnSe/test_10_EOS_easy/dft_01/eos/001/relaxation/geometry.in.next_step
# Created using the Atomic Simulation Environment (ASE)
# Fri Apr 14 09:41:23 2023

# Additional information:
#  Relaxed with BFGS, fmax=0.100 meV/AA
#  nsteps = 22
#  residual force  = 0.039981 meV/AA
#=======================================================
lattice_vector 11.3809469303970001 -0.0000000000000000 0.0000000000000000 
lattice_vector 0.0000000000000000 4.1152036576380002 0.0000000000000000 
lattice_vector 0.0000000000000000 0.0000000000000000 4.3092105212160003 
atom_frac 0.8591373928279999 0.7499999616380000 0.0310537305190000 Se
atom_frac 0.1408626317080000 0.2500000709730000 0.9689462090690001 Se
atom_frac 0.6408626216889999 0.2499999027870000 0.5310537125370000 Se
atom_frac 0.3591373676940000 0.7500000688500000 0.4689463398600000 Se
atom_frac 0.1176825709050000 0.7499999575189999 0.4103601397480001 Sn
atom_frac 0.8823174342769999 0.2500001047480000 0.5896399080090000 Sn
atom_frac 0.3823174188120000 0.2499999530500000 0.9103600302370000 Sn
atom_frac 0.6176825620859999 0.7499999804360000 0.0896399300220000 Sn
