#=======================================================
# FHI-aims file: /Users/flokno/working/projects/so3krates/dev_SnSe/test_10_EOS_easy/so3krates_L3/eos/000/relaxation/geometry.in.next_step
# Created using the Atomic Simulation Environment (ASE)
# Thu Apr 13 17:23:09 2023

# Additional information:
#  Relaxed with BFGS, fmax=0.100 meV/AA
#  nsteps = 22
#  residual force  = 0.072041 meV/AA
#=======================================================
lattice_vector 11.3346829184850009 -0.0000000000000000 0.0000000000000000 
lattice_vector 0.0000000000000000 4.0984751874849996 0.0000000000000000 
lattice_vector 0.0000000000000000 0.0000000000000000 4.2916934052759999 
atom_frac 0.8601384970930001 0.7500000000000000 0.0301790059960000 Se
atom_frac 0.1398615029070000 0.2500000000000000 0.9698209940050001 Se
atom_frac 0.6398615029069999 0.2500000000000000 0.5301790059960000 Se
atom_frac 0.3601384970930000 0.7500000000000000 0.4698209940050000 Se
atom_frac 0.1182024642230000 0.7500000000000000 0.4182736225810000 Sn
atom_frac 0.8817975357770000 0.2500000000000000 0.5817263774190000 Sn
atom_frac 0.3817975357770000 0.2500000000000000 0.9182736225810000 Sn
atom_frac 0.6182024642230000 0.7500000000000000 0.0817263774190000 Sn
