#=======================================================
# FHI-aims file: /Users/flokno/working/projects/so3krates/dev_SnSe/test_10_EOS_easy/finer/so3krates_L1/eos/000/relaxation/geometry.in.next_step
# Created using the Atomic Simulation Environment (ASE)
# Mon Apr 17 17:07:35 2023

# Additional information:
#  Relaxed with BFGS, fmax=0.100 meV/AA
#  nsteps = 22
#  residual force  = 0.042112 meV/AA
#=======================================================
lattice_vector 11.4503429482660000 -0.0000000000000000 0.0000000000000000 
lattice_vector 0.0000000000000000 4.1402963628679998 0.0000000000000000 
lattice_vector 0.0000000000000000 0.0000000000000000 4.3354861951260002 
atom_frac 0.8588692173850000 0.7500000000000000 0.0268681571950000 Se
atom_frac 0.1411307826150000 0.2500000000000000 0.9731318428050000 Se
atom_frac 0.6411307826150000 0.2500000000000000 0.5268681571950000 Se
atom_frac 0.3588692173850000 0.7500000000000000 0.4731318428049999 Se
atom_frac 0.1186905350540000 0.7500000000000000 0.4132156428979999 Sn
atom_frac 0.8813094649460002 0.2500000000000000 0.5867843571019999 Sn
atom_frac 0.3813094649459999 0.2500000000000000 0.9132156428979999 Sn
atom_frac 0.6186905350540000 0.7500000000000000 0.0867843571020000 Sn
