#=======================================================
# FHI-aims file: /cfs/klemming/projects/snic/snic2021-1-10/dardel-test/flokno/projects/so3krates/dev_SnSe/test_10_EOS_easy/dft_01/eos/004/relaxation/geometry.in.next_step
# Created using the Atomic Simulation Environment (ASE)
# Fri Apr 14 09:42:27 2023

# Additional information:
#  Relaxed with BFGS, fmax=0.100 meV/AA
#  nsteps = 20
#  residual force  = 0.063799 meV/AA
#=======================================================
lattice_vector 11.5197389661339997 -0.0000000000000000 0.0000000000000000 
lattice_vector 0.0000000000000000 4.1653890680970003 0.0000000000000000 
lattice_vector 0.0000000000000000 0.0000000000000000 4.3617618690360000 
atom_frac 0.8584895966790002 0.7499999724160000 0.0331651026680000 Se
atom_frac 0.1415103622770000 0.2500001372470000 0.9668349827289999 Se
atom_frac 0.6415106081820000 0.2499999191850000 0.5331654110570000 Se
atom_frac 0.3584894492840000 0.7500000762570000 0.4668345669610000 Se
atom_frac 0.1192521900970000 0.7500000800920000 0.4001167015780000 Sn
atom_frac 0.8807478017990000 0.2499998584900000 0.5998832001790000 Sn
atom_frac 0.3807480222130000 0.2499998472700000 0.9001172058140000 Sn
atom_frac 0.6192519694680000 0.7500001090430001 0.0998828290130000 Sn
