#=======================================================
# FHI-aims file: geometry.in.primitive.supercell_2048
# Created using the Atomic Simulation Environment (ASE)
# Fri Apr  7 17:34:08 2023

# Additional information:
#  Number of atoms:     2048
#  Spacegroup:          62
#  supercell:           True
#  supercell_matrix:    [4, 0, 0, 0, 8, 0, 0, 0, 8]
#  Supercell matrix:    [4 0 0 0 8 0 0 0 8]
#=======================================================
lattice_vector 46.5381034195480723 0.0000000000000000 0.0000000000000000 
lattice_vector 0.0000000000000000 33.5653562038561617 0.0000000000000000 
lattice_vector 0.0000000000000000 0.0000000000000000 35.2337721997360802 
atom_frac 0.2145770617137500 0.0937500000000000 0.0041093805898750 Se
atom_frac 0.4645770617137500 0.0937500000000000 0.0041093805898750 Se
atom_frac 0.7145770617137500 0.0937500000000000 0.0041093805898750 Se
atom_frac 0.9645770617137501 0.0937500000000000 0.0041093805898750 Se
atom_frac 0.2145770617137500 0.2187500000000000 0.0041093805898750 Se
atom_frac 0.4645770617137500 0.2187500000000000 0.0041093805898750 Se
atom_frac 0.7145770617137500 0.2187500000000000 0.0041093805898750 Se
atom_frac 0.9645770617137501 0.2187500000000000 0.0041093805898750 Se
atom_frac 0.2145770617137500 0.3437500000000000 0.0041093805898750 Se
atom_frac 0.4645770617137500 0.3437500000000000 0.0041093805898750 Se
atom_frac 0.7145770617137500 0.3437500000000000 0.0041093805898750 Se
atom_frac 0.9645770617137501 0.3437500000000000 0.0041093805898750 Se
atom_frac 0.2145770617137500 0.4687500000000000 0.0041093805898750 Se
atom_frac 0.4645770617137500 0.4687500000000000 0.0041093805898750 Se
atom_frac 0.7145770617137500 0.4687500000000000 0.0041093805898750 Se
atom_frac 0.9645770617137501 0.4687500000000000 0.0041093805898750 Se
atom_frac 0.2145770617137500 0.5937500000000000 0.0041093805898750 Se
atom_frac 0.4645770617137500 0.5937500000000000 0.0041093805898750 Se
atom_frac 0.7145770617137500 0.5937500000000000 0.0041093805898750 Se
atom_frac 0.9645770617137501 0.5937500000000000 0.0041093805898750 Se
atom_frac 0.2145770617137500 0.7187500000000000 0.0041093805898750 Se
atom_frac 0.4645770617137500 0.7187500000000000 0.0041093805898750 Se
atom_frac 0.7145770617137500 0.7187500000000000 0.0041093805898750 Se
atom_frac 0.9645770617137501 0.7187500000000000 0.0041093805898750 Se
atom_frac 0.2145770617137500 0.8437500000000000 0.0041093805898750 Se
atom_frac 0.4645770617137500 0.8437500000000000 0.0041093805898750 Se
atom_frac 0.7145770617137500 0.8437500000000000 0.0041093805898750 Se
atom_frac 0.9645770617137501 0.8437500000000000 0.0041093805898750 Se
atom_frac 0.2145770617137500 0.9687499999999999 0.0041093805898750 Se
atom_frac 0.4645770617137500 0.9687499999999999 0.0041093805898750 Se
atom_frac 0.7145770617137500 0.9687499999999999 0.0041093805898750 Se
atom_frac 0.9645770617137501 0.9687499999999999 0.0041093805898750 Se
atom_frac 0.2145770617137500 0.0937500000000000 0.1291093805898750 Se
atom_frac 0.4645770617137500 0.0937500000000000 0.1291093805898750 Se
atom_frac 0.7145770617137500 0.0937500000000000 0.1291093805898750 Se
atom_frac 0.9645770617137501 0.0937500000000000 0.1291093805898750 Se
atom_frac 0.2145770617137500 0.2187500000000000 0.1291093805898750 Se
atom_frac 0.4645770617137500 0.2187500000000000 0.1291093805898750 Se
atom_frac 0.7145770617137500 0.2187500000000000 0.1291093805898750 Se
atom_frac 0.9645770617137501 0.2187500000000000 0.1291093805898750 Se
atom_frac 0.2145770617137500 0.3437500000000000 0.1291093805898750 Se
atom_frac 0.4645770617137500 0.3437500000000000 0.1291093805898750 Se
atom_frac 0.7145770617137500 0.3437500000000000 0.1291093805898750 Se
atom_frac 0.9645770617137501 0.3437500000000000 0.1291093805898750 Se
atom_frac 0.2145770617137500 0.4687500000000000 0.1291093805898750 Se
atom_frac 0.4645770617137500 0.4687500000000000 0.1291093805898750 Se
atom_frac 0.7145770617137500 0.4687500000000000 0.1291093805898750 Se
atom_frac 0.9645770617137501 0.4687500000000000 0.1291093805898750 Se
atom_frac 0.2145770617137500 0.5937500000000000 0.1291093805898750 Se
atom_frac 0.4645770617137500 0.5937500000000000 0.1291093805898750 Se
atom_frac 0.7145770617137500 0.5937500000000000 0.1291093805898750 Se
atom_frac 0.9645770617137501 0.5937500000000000 0.1291093805898750 Se
atom_frac 0.2145770617137500 0.7187500000000000 0.1291093805898750 Se
atom_frac 0.4645770617137500 0.7187500000000000 0.1291093805898750 Se
atom_frac 0.7145770617137500 0.7187500000000000 0.1291093805898750 Se
atom_frac 0.9645770617137501 0.7187500000000000 0.1291093805898750 Se
atom_frac 0.2145770617137500 0.8437500000000000 0.1291093805898750 Se
atom_frac 0.4645770617137500 0.8437500000000000 0.1291093805898750 Se
atom_frac 0.7145770617137500 0.8437500000000000 0.1291093805898750 Se
atom_frac 0.9645770617137501 0.8437500000000000 0.1291093805898750 Se
atom_frac 0.2145770617137500 0.9687499999999999 0.1291093805898750 Se
atom_frac 0.4645770617137500 0.9687499999999999 0.1291093805898750 Se
atom_frac 0.7145770617137500 0.9687499999999999 0.1291093805898750 Se
atom_frac 0.9645770617137501 0.9687499999999999 0.1291093805898750 Se
atom_frac 0.2145770617137500 0.0937500000000000 0.2541093805898750 Se
atom_frac 0.4645770617137500 0.0937500000000000 0.2541093805898750 Se
atom_frac 0.7145770617137500 0.0937500000000000 0.2541093805898750 Se
atom_frac 0.9645770617137501 0.0937500000000000 0.2541093805898750 Se
atom_frac 0.2145770617137500 0.2187500000000000 0.2541093805898750 Se
atom_frac 0.4645770617137500 0.2187500000000000 0.2541093805898750 Se
atom_frac 0.7145770617137500 0.2187500000000000 0.2541093805898750 Se
atom_frac 0.9645770617137501 0.2187500000000000 0.2541093805898750 Se
atom_frac 0.2145770617137500 0.3437500000000000 0.2541093805898750 Se
atom_frac 0.4645770617137500 0.3437500000000000 0.2541093805898750 Se
atom_frac 0.7145770617137500 0.3437500000000000 0.2541093805898750 Se
atom_frac 0.9645770617137501 0.3437500000000000 0.2541093805898750 Se
atom_frac 0.2145770617137500 0.4687500000000000 0.2541093805898750 Se
atom_frac 0.4645770617137500 0.4687500000000000 0.2541093805898750 Se
atom_frac 0.7145770617137500 0.4687500000000000 0.2541093805898750 Se
atom_frac 0.9645770617137501 0.4687500000000000 0.2541093805898750 Se
atom_frac 0.2145770617137500 0.5937500000000000 0.2541093805898750 Se
atom_frac 0.4645770617137500 0.5937500000000000 0.2541093805898750 Se
atom_frac 0.7145770617137500 0.5937500000000000 0.2541093805898750 Se
atom_frac 0.9645770617137501 0.5937500000000000 0.2541093805898750 Se
atom_frac 0.2145770617137500 0.7187500000000000 0.2541093805898750 Se
atom_frac 0.4645770617137500 0.7187500000000000 0.2541093805898750 Se
atom_frac 0.7145770617137500 0.7187500000000000 0.2541093805898750 Se
atom_frac 0.9645770617137501 0.7187500000000000 0.2541093805898750 Se
atom_frac 0.2145770617137500 0.8437500000000000 0.2541093805898750 Se
atom_frac 0.4645770617137500 0.8437500000000000 0.2541093805898750 Se
atom_frac 0.7145770617137500 0.8437500000000000 0.2541093805898750 Se
atom_frac 0.9645770617137501 0.8437500000000000 0.2541093805898750 Se
atom_frac 0.2145770617137500 0.9687499999999999 0.2541093805898750 Se
atom_frac 0.4645770617137500 0.9687499999999999 0.2541093805898750 Se
atom_frac 0.7145770617137500 0.9687499999999999 0.2541093805898750 Se
atom_frac 0.9645770617137501 0.9687499999999999 0.2541093805898750 Se
atom_frac 0.2145770617137500 0.0937500000000000 0.3791093805898750 Se
atom_frac 0.4645770617137500 0.0937500000000000 0.3791093805898750 Se
atom_frac 0.7145770617137500 0.0937500000000000 0.3791093805898750 Se
atom_frac 0.9645770617137501 0.0937500000000000 0.3791093805898750 Se
atom_frac 0.2145770617137500 0.2187500000000000 0.3791093805898750 Se
atom_frac 0.4645770617137500 0.2187500000000000 0.3791093805898750 Se
atom_frac 0.7145770617137500 0.2187500000000000 0.3791093805898750 Se
atom_frac 0.9645770617137501 0.2187500000000000 0.3791093805898750 Se
atom_frac 0.2145770617137500 0.3437500000000000 0.3791093805898750 Se
atom_frac 0.4645770617137500 0.3437500000000000 0.3791093805898750 Se
atom_frac 0.7145770617137500 0.3437500000000000 0.3791093805898750 Se
atom_frac 0.9645770617137501 0.3437500000000000 0.3791093805898750 Se
atom_frac 0.2145770617137500 0.4687500000000000 0.3791093805898750 Se
atom_frac 0.4645770617137500 0.4687500000000000 0.3791093805898750 Se
atom_frac 0.7145770617137500 0.4687500000000000 0.3791093805898750 Se
atom_frac 0.9645770617137501 0.4687500000000000 0.3791093805898750 Se
atom_frac 0.2145770617137500 0.5937500000000000 0.3791093805898750 Se
atom_frac 0.4645770617137500 0.5937500000000000 0.3791093805898750 Se
atom_frac 0.7145770617137500 0.5937500000000000 0.3791093805898750 Se
atom_frac 0.9645770617137501 0.5937500000000000 0.3791093805898750 Se
atom_frac 0.2145770617137500 0.7187500000000000 0.3791093805898750 Se
atom_frac 0.4645770617137500 0.7187500000000000 0.3791093805898750 Se
atom_frac 0.7145770617137500 0.7187500000000000 0.3791093805898750 Se
atom_frac 0.9645770617137501 0.7187500000000000 0.3791093805898750 Se
atom_frac 0.2145770617137500 0.8437500000000000 0.3791093805898750 Se
atom_frac 0.4645770617137500 0.8437500000000000 0.3791093805898750 Se
atom_frac 0.7145770617137500 0.8437500000000000 0.3791093805898750 Se
atom_frac 0.9645770617137501 0.8437500000000000 0.3791093805898750 Se
atom_frac 0.2145770617137500 0.9687499999999999 0.3791093805898750 Se
atom_frac 0.4645770617137500 0.9687499999999999 0.3791093805898750 Se
atom_frac 0.7145770617137500 0.9687499999999999 0.3791093805898750 Se
atom_frac 0.9645770617137501 0.9687499999999999 0.3791093805898750 Se
atom_frac 0.2145770617137500 0.0937500000000000 0.5041093805898750 Se
atom_frac 0.4645770617137500 0.0937500000000000 0.5041093805898750 Se
atom_frac 0.7145770617137500 0.0937500000000000 0.5041093805898750 Se
atom_frac 0.9645770617137501 0.0937500000000000 0.5041093805898750 Se
atom_frac 0.2145770617137500 0.2187500000000000 0.5041093805898750 Se
atom_frac 0.4645770617137500 0.2187500000000000 0.5041093805898750 Se
atom_frac 0.7145770617137500 0.2187500000000000 0.5041093805898750 Se
atom_frac 0.9645770617137501 0.2187500000000000 0.5041093805898750 Se
atom_frac 0.2145770617137500 0.3437500000000000 0.5041093805898750 Se
atom_frac 0.4645770617137500 0.3437500000000000 0.5041093805898750 Se
atom_frac 0.7145770617137500 0.3437500000000000 0.5041093805898750 Se
atom_frac 0.9645770617137501 0.3437500000000000 0.5041093805898750 Se
atom_frac 0.2145770617137500 0.4687500000000000 0.5041093805898750 Se
atom_frac 0.4645770617137500 0.4687500000000000 0.5041093805898750 Se
atom_frac 0.7145770617137500 0.4687500000000000 0.5041093805898750 Se
atom_frac 0.9645770617137501 0.4687500000000000 0.5041093805898750 Se
atom_frac 0.2145770617137500 0.5937500000000000 0.5041093805898750 Se
atom_frac 0.4645770617137500 0.5937500000000000 0.5041093805898750 Se
atom_frac 0.7145770617137500 0.5937500000000000 0.5041093805898750 Se
atom_frac 0.9645770617137501 0.5937500000000000 0.5041093805898750 Se
atom_frac 0.2145770617137500 0.7187500000000000 0.5041093805898750 Se
atom_frac 0.4645770617137500 0.7187500000000000 0.5041093805898750 Se
atom_frac 0.7145770617137500 0.7187500000000000 0.5041093805898750 Se
atom_frac 0.9645770617137501 0.7187500000000000 0.5041093805898750 Se
atom_frac 0.2145770617137500 0.8437500000000000 0.5041093805898750 Se
atom_frac 0.4645770617137500 0.8437500000000000 0.5041093805898750 Se
atom_frac 0.7145770617137500 0.8437500000000000 0.5041093805898750 Se
atom_frac 0.9645770617137501 0.8437500000000000 0.5041093805898750 Se
atom_frac 0.2145770617137500 0.9687499999999999 0.5041093805898750 Se
atom_frac 0.4645770617137500 0.9687499999999999 0.5041093805898750 Se
atom_frac 0.7145770617137500 0.9687499999999999 0.5041093805898750 Se
atom_frac 0.9645770617137501 0.9687499999999999 0.5041093805898750 Se
atom_frac 0.2145770617137500 0.0937500000000000 0.6291093805898750 Se
atom_frac 0.4645770617137500 0.0937500000000000 0.6291093805898750 Se
atom_frac 0.7145770617137500 0.0937500000000000 0.6291093805898750 Se
atom_frac 0.9645770617137501 0.0937500000000000 0.6291093805898750 Se
atom_frac 0.2145770617137500 0.2187500000000000 0.6291093805898750 Se
atom_frac 0.4645770617137500 0.2187500000000000 0.6291093805898750 Se
atom_frac 0.7145770617137500 0.2187500000000000 0.6291093805898750 Se
atom_frac 0.9645770617137501 0.2187500000000000 0.6291093805898750 Se
atom_frac 0.2145770617137500 0.3437500000000000 0.6291093805898750 Se
atom_frac 0.4645770617137500 0.3437500000000000 0.6291093805898750 Se
atom_frac 0.7145770617137500 0.3437500000000000 0.6291093805898750 Se
atom_frac 0.9645770617137501 0.3437500000000000 0.6291093805898750 Se
atom_frac 0.2145770617137500 0.4687500000000000 0.6291093805898750 Se
atom_frac 0.4645770617137500 0.4687500000000000 0.6291093805898750 Se
atom_frac 0.7145770617137500 0.4687500000000000 0.6291093805898750 Se
atom_frac 0.9645770617137501 0.4687500000000000 0.6291093805898750 Se
atom_frac 0.2145770617137500 0.5937500000000000 0.6291093805898750 Se
atom_frac 0.4645770617137500 0.5937500000000000 0.6291093805898750 Se
atom_frac 0.7145770617137500 0.5937500000000000 0.6291093805898750 Se
atom_frac 0.9645770617137501 0.5937500000000000 0.6291093805898750 Se
atom_frac 0.2145770617137500 0.7187500000000000 0.6291093805898750 Se
atom_frac 0.4645770617137500 0.7187500000000000 0.6291093805898750 Se
atom_frac 0.7145770617137500 0.7187500000000000 0.6291093805898750 Se
atom_frac 0.9645770617137501 0.7187500000000000 0.6291093805898750 Se
atom_frac 0.2145770617137500 0.8437500000000000 0.6291093805898750 Se
atom_frac 0.4645770617137500 0.8437500000000000 0.6291093805898750 Se
atom_frac 0.7145770617137500 0.8437500000000000 0.6291093805898750 Se
atom_frac 0.9645770617137501 0.8437500000000000 0.6291093805898750 Se
atom_frac 0.2145770617137500 0.9687499999999999 0.6291093805898750 Se
atom_frac 0.4645770617137500 0.9687499999999999 0.6291093805898750 Se
atom_frac 0.7145770617137500 0.9687499999999999 0.6291093805898750 Se
atom_frac 0.9645770617137501 0.9687499999999999 0.6291093805898750 Se
atom_frac 0.2145770617137500 0.0937500000000000 0.7541093805898750 Se
atom_frac 0.4645770617137500 0.0937500000000000 0.7541093805898750 Se
atom_frac 0.7145770617137500 0.0937500000000000 0.7541093805898750 Se
atom_frac 0.9645770617137501 0.0937500000000000 0.7541093805898750 Se
atom_frac 0.2145770617137500 0.2187500000000000 0.7541093805898750 Se
atom_frac 0.4645770617137500 0.2187500000000000 0.7541093805898750 Se
atom_frac 0.7145770617137500 0.2187500000000000 0.7541093805898750 Se
atom_frac 0.9645770617137501 0.2187500000000000 0.7541093805898750 Se
atom_frac 0.2145770617137500 0.3437500000000000 0.7541093805898750 Se
atom_frac 0.4645770617137500 0.3437500000000000 0.7541093805898750 Se
atom_frac 0.7145770617137500 0.3437500000000000 0.7541093805898750 Se
atom_frac 0.9645770617137501 0.3437500000000000 0.7541093805898750 Se
atom_frac 0.2145770617137500 0.4687500000000000 0.7541093805898750 Se
atom_frac 0.4645770617137500 0.4687500000000000 0.7541093805898750 Se
atom_frac 0.7145770617137500 0.4687500000000000 0.7541093805898750 Se
atom_frac 0.9645770617137501 0.4687500000000000 0.7541093805898750 Se
atom_frac 0.2145770617137500 0.5937500000000000 0.7541093805898750 Se
atom_frac 0.4645770617137500 0.5937500000000000 0.7541093805898750 Se
atom_frac 0.7145770617137500 0.5937500000000000 0.7541093805898750 Se
atom_frac 0.9645770617137501 0.5937500000000000 0.7541093805898750 Se
atom_frac 0.2145770617137500 0.7187500000000000 0.7541093805898750 Se
atom_frac 0.4645770617137500 0.7187500000000000 0.7541093805898750 Se
atom_frac 0.7145770617137500 0.7187500000000000 0.7541093805898750 Se
atom_frac 0.9645770617137501 0.7187500000000000 0.7541093805898750 Se
atom_frac 0.2145770617137500 0.8437500000000000 0.7541093805898750 Se
atom_frac 0.4645770617137500 0.8437500000000000 0.7541093805898750 Se
atom_frac 0.7145770617137500 0.8437500000000000 0.7541093805898750 Se
atom_frac 0.9645770617137501 0.8437500000000000 0.7541093805898750 Se
atom_frac 0.2145770617137500 0.9687499999999999 0.7541093805898750 Se
atom_frac 0.4645770617137500 0.9687499999999999 0.7541093805898750 Se
atom_frac 0.7145770617137500 0.9687499999999999 0.7541093805898750 Se
atom_frac 0.9645770617137501 0.9687499999999999 0.7541093805898750 Se
atom_frac 0.2145770617137500 0.0937500000000000 0.8791093805898750 Se
atom_frac 0.4645770617137500 0.0937500000000000 0.8791093805898750 Se
atom_frac 0.7145770617137500 0.0937500000000000 0.8791093805898750 Se
atom_frac 0.9645770617137501 0.0937500000000000 0.8791093805898750 Se
atom_frac 0.2145770617137500 0.2187500000000000 0.8791093805898750 Se
atom_frac 0.4645770617137500 0.2187500000000000 0.8791093805898750 Se
atom_frac 0.7145770617137500 0.2187500000000000 0.8791093805898750 Se
atom_frac 0.9645770617137501 0.2187500000000000 0.8791093805898750 Se
atom_frac 0.2145770617137500 0.3437500000000000 0.8791093805898750 Se
atom_frac 0.4645770617137500 0.3437500000000000 0.8791093805898750 Se
atom_frac 0.7145770617137500 0.3437500000000000 0.8791093805898750 Se
atom_frac 0.9645770617137501 0.3437500000000000 0.8791093805898750 Se
atom_frac 0.2145770617137500 0.4687500000000000 0.8791093805898750 Se
atom_frac 0.4645770617137500 0.4687500000000000 0.8791093805898750 Se
atom_frac 0.7145770617137500 0.4687500000000000 0.8791093805898750 Se
atom_frac 0.9645770617137501 0.4687500000000000 0.8791093805898750 Se
atom_frac 0.2145770617137500 0.5937500000000000 0.8791093805898750 Se
atom_frac 0.4645770617137500 0.5937500000000000 0.8791093805898750 Se
atom_frac 0.7145770617137500 0.5937500000000000 0.8791093805898750 Se
atom_frac 0.9645770617137501 0.5937500000000000 0.8791093805898750 Se
atom_frac 0.2145770617137500 0.7187500000000000 0.8791093805898750 Se
atom_frac 0.4645770617137500 0.7187500000000000 0.8791093805898750 Se
atom_frac 0.7145770617137500 0.7187500000000000 0.8791093805898750 Se
atom_frac 0.9645770617137501 0.7187500000000000 0.8791093805898750 Se
atom_frac 0.2145770617137500 0.8437500000000000 0.8791093805898750 Se
atom_frac 0.4645770617137500 0.8437500000000000 0.8791093805898750 Se
atom_frac 0.7145770617137500 0.8437500000000000 0.8791093805898750 Se
atom_frac 0.9645770617137501 0.8437500000000000 0.8791093805898750 Se
atom_frac 0.2145770617137500 0.9687499999999999 0.8791093805898750 Se
atom_frac 0.4645770617137500 0.9687499999999999 0.8791093805898750 Se
atom_frac 0.7145770617137500 0.9687499999999999 0.8791093805898750 Se
atom_frac 0.9645770617137501 0.9687499999999999 0.8791093805898750 Se
atom_frac 0.0354229382862500 0.0312500000000000 0.1208906194101251 Se
atom_frac 0.2854229382862500 0.0312500000000000 0.1208906194101251 Se
atom_frac 0.5354229382862500 0.0312500000000000 0.1208906194101251 Se
atom_frac 0.7854229382862500 0.0312500000000000 0.1208906194101251 Se
atom_frac 0.0354229382862500 0.1562500000000000 0.1208906194101251 Se
atom_frac 0.2854229382862500 0.1562500000000000 0.1208906194101251 Se
atom_frac 0.5354229382862500 0.1562500000000000 0.1208906194101251 Se
atom_frac 0.7854229382862500 0.1562500000000000 0.1208906194101251 Se
atom_frac 0.0354229382862500 0.2812500000000000 0.1208906194101251 Se
atom_frac 0.2854229382862500 0.2812500000000000 0.1208906194101251 Se
atom_frac 0.5354229382862500 0.2812500000000000 0.1208906194101251 Se
atom_frac 0.7854229382862500 0.2812500000000000 0.1208906194101251 Se
atom_frac 0.0354229382862500 0.4062500000000000 0.1208906194101251 Se
atom_frac 0.2854229382862500 0.4062500000000000 0.1208906194101251 Se
atom_frac 0.5354229382862500 0.4062500000000000 0.1208906194101251 Se
atom_frac 0.7854229382862500 0.4062500000000000 0.1208906194101251 Se
atom_frac 0.0354229382862500 0.5312500000000000 0.1208906194101251 Se
atom_frac 0.2854229382862500 0.5312500000000000 0.1208906194101251 Se
atom_frac 0.5354229382862500 0.5312500000000000 0.1208906194101251 Se
atom_frac 0.7854229382862500 0.5312500000000000 0.1208906194101251 Se
atom_frac 0.0354229382862500 0.6562500000000000 0.1208906194101251 Se
atom_frac 0.2854229382862500 0.6562500000000000 0.1208906194101251 Se
atom_frac 0.5354229382862500 0.6562500000000000 0.1208906194101251 Se
atom_frac 0.7854229382862500 0.6562500000000000 0.1208906194101251 Se
atom_frac 0.0354229382862500 0.7812500000000000 0.1208906194101251 Se
atom_frac 0.2854229382862500 0.7812500000000000 0.1208906194101251 Se
atom_frac 0.5354229382862500 0.7812500000000000 0.1208906194101251 Se
atom_frac 0.7854229382862500 0.7812500000000000 0.1208906194101251 Se
atom_frac 0.0354229382862500 0.9062499999999999 0.1208906194101251 Se
atom_frac 0.2854229382862500 0.9062499999999999 0.1208906194101251 Se
atom_frac 0.5354229382862500 0.9062499999999999 0.1208906194101251 Se
atom_frac 0.7854229382862500 0.9062499999999999 0.1208906194101251 Se
atom_frac 0.0354229382862500 0.0312500000000000 0.2458906194101251 Se
atom_frac 0.2854229382862500 0.0312500000000000 0.2458906194101251 Se
atom_frac 0.5354229382862500 0.0312500000000000 0.2458906194101251 Se
atom_frac 0.7854229382862500 0.0312500000000000 0.2458906194101251 Se
atom_frac 0.0354229382862500 0.1562500000000000 0.2458906194101251 Se
atom_frac 0.2854229382862500 0.1562500000000000 0.2458906194101251 Se
atom_frac 0.5354229382862500 0.1562500000000000 0.2458906194101251 Se
atom_frac 0.7854229382862500 0.1562500000000000 0.2458906194101251 Se
atom_frac 0.0354229382862500 0.2812500000000000 0.2458906194101251 Se
atom_frac 0.2854229382862500 0.2812500000000000 0.2458906194101251 Se
atom_frac 0.5354229382862500 0.2812500000000000 0.2458906194101251 Se
atom_frac 0.7854229382862500 0.2812500000000000 0.2458906194101251 Se
atom_frac 0.0354229382862500 0.4062500000000000 0.2458906194101251 Se
atom_frac 0.2854229382862500 0.4062500000000000 0.2458906194101251 Se
atom_frac 0.5354229382862500 0.4062500000000000 0.2458906194101251 Se
atom_frac 0.7854229382862500 0.4062500000000000 0.2458906194101251 Se
atom_frac 0.0354229382862500 0.5312500000000000 0.2458906194101251 Se
atom_frac 0.2854229382862500 0.5312500000000000 0.2458906194101251 Se
atom_frac 0.5354229382862500 0.5312500000000000 0.2458906194101251 Se
atom_frac 0.7854229382862500 0.5312500000000000 0.2458906194101251 Se
atom_frac 0.0354229382862500 0.6562500000000000 0.2458906194101251 Se
atom_frac 0.2854229382862500 0.6562500000000000 0.2458906194101251 Se
atom_frac 0.5354229382862500 0.6562500000000000 0.2458906194101251 Se
atom_frac 0.7854229382862500 0.6562500000000000 0.2458906194101251 Se
atom_frac 0.0354229382862500 0.7812500000000000 0.2458906194101251 Se
atom_frac 0.2854229382862500 0.7812500000000000 0.2458906194101251 Se
atom_frac 0.5354229382862500 0.7812500000000000 0.2458906194101251 Se
atom_frac 0.7854229382862500 0.7812500000000000 0.2458906194101251 Se
atom_frac 0.0354229382862500 0.9062499999999999 0.2458906194101251 Se
atom_frac 0.2854229382862500 0.9062499999999999 0.2458906194101251 Se
atom_frac 0.5354229382862500 0.9062499999999999 0.2458906194101251 Se
atom_frac 0.7854229382862500 0.9062499999999999 0.2458906194101251 Se
atom_frac 0.0354229382862500 0.0312500000000000 0.3708906194101251 Se
atom_frac 0.2854229382862500 0.0312500000000000 0.3708906194101251 Se
atom_frac 0.5354229382862500 0.0312500000000000 0.3708906194101251 Se
atom_frac 0.7854229382862500 0.0312500000000000 0.3708906194101251 Se
atom_frac 0.0354229382862500 0.1562500000000000 0.3708906194101251 Se
atom_frac 0.2854229382862500 0.1562500000000000 0.3708906194101251 Se
atom_frac 0.5354229382862500 0.1562500000000000 0.3708906194101251 Se
atom_frac 0.7854229382862500 0.1562500000000000 0.3708906194101251 Se
atom_frac 0.0354229382862500 0.2812500000000000 0.3708906194101251 Se
atom_frac 0.2854229382862500 0.2812500000000000 0.3708906194101251 Se
atom_frac 0.5354229382862500 0.2812500000000000 0.3708906194101251 Se
atom_frac 0.7854229382862500 0.2812500000000000 0.3708906194101251 Se
atom_frac 0.0354229382862500 0.4062500000000000 0.3708906194101251 Se
atom_frac 0.2854229382862500 0.4062500000000000 0.3708906194101251 Se
atom_frac 0.5354229382862500 0.4062500000000000 0.3708906194101251 Se
atom_frac 0.7854229382862500 0.4062500000000000 0.3708906194101251 Se
atom_frac 0.0354229382862500 0.5312500000000000 0.3708906194101251 Se
atom_frac 0.2854229382862500 0.5312500000000000 0.3708906194101251 Se
atom_frac 0.5354229382862500 0.5312500000000000 0.3708906194101251 Se
atom_frac 0.7854229382862500 0.5312500000000000 0.3708906194101251 Se
atom_frac 0.0354229382862500 0.6562500000000000 0.3708906194101251 Se
atom_frac 0.2854229382862500 0.6562500000000000 0.3708906194101251 Se
atom_frac 0.5354229382862500 0.6562500000000000 0.3708906194101251 Se
atom_frac 0.7854229382862500 0.6562500000000000 0.3708906194101251 Se
atom_frac 0.0354229382862500 0.7812500000000000 0.3708906194101251 Se
atom_frac 0.2854229382862500 0.7812500000000000 0.3708906194101251 Se
atom_frac 0.5354229382862500 0.7812500000000000 0.3708906194101251 Se
atom_frac 0.7854229382862500 0.7812500000000000 0.3708906194101251 Se
atom_frac 0.0354229382862500 0.9062499999999999 0.3708906194101251 Se
atom_frac 0.2854229382862500 0.9062499999999999 0.3708906194101251 Se
atom_frac 0.5354229382862500 0.9062499999999999 0.3708906194101251 Se
atom_frac 0.7854229382862500 0.9062499999999999 0.3708906194101251 Se
atom_frac 0.0354229382862500 0.0312500000000000 0.4958906194101251 Se
atom_frac 0.2854229382862500 0.0312500000000000 0.4958906194101251 Se
atom_frac 0.5354229382862500 0.0312500000000000 0.4958906194101251 Se
atom_frac 0.7854229382862500 0.0312500000000000 0.4958906194101251 Se
atom_frac 0.0354229382862500 0.1562500000000000 0.4958906194101251 Se
atom_frac 0.2854229382862500 0.1562500000000000 0.4958906194101251 Se
atom_frac 0.5354229382862500 0.1562500000000000 0.4958906194101251 Se
atom_frac 0.7854229382862500 0.1562500000000000 0.4958906194101251 Se
atom_frac 0.0354229382862500 0.2812500000000000 0.4958906194101251 Se
atom_frac 0.2854229382862500 0.2812500000000000 0.4958906194101251 Se
atom_frac 0.5354229382862500 0.2812500000000000 0.4958906194101251 Se
atom_frac 0.7854229382862500 0.2812500000000000 0.4958906194101251 Se
atom_frac 0.0354229382862500 0.4062500000000000 0.4958906194101251 Se
atom_frac 0.2854229382862500 0.4062500000000000 0.4958906194101251 Se
atom_frac 0.5354229382862500 0.4062500000000000 0.4958906194101251 Se
atom_frac 0.7854229382862500 0.4062500000000000 0.4958906194101251 Se
atom_frac 0.0354229382862500 0.5312500000000000 0.4958906194101251 Se
atom_frac 0.2854229382862500 0.5312500000000000 0.4958906194101251 Se
atom_frac 0.5354229382862500 0.5312500000000000 0.4958906194101251 Se
atom_frac 0.7854229382862500 0.5312500000000000 0.4958906194101251 Se
atom_frac 0.0354229382862500 0.6562500000000000 0.4958906194101251 Se
atom_frac 0.2854229382862500 0.6562500000000000 0.4958906194101251 Se
atom_frac 0.5354229382862500 0.6562500000000000 0.4958906194101251 Se
atom_frac 0.7854229382862500 0.6562500000000000 0.4958906194101251 Se
atom_frac 0.0354229382862500 0.7812500000000000 0.4958906194101251 Se
atom_frac 0.2854229382862500 0.7812500000000000 0.4958906194101251 Se
atom_frac 0.5354229382862500 0.7812500000000000 0.4958906194101251 Se
atom_frac 0.7854229382862500 0.7812500000000000 0.4958906194101251 Se
atom_frac 0.0354229382862500 0.9062499999999999 0.4958906194101251 Se
atom_frac 0.2854229382862500 0.9062499999999999 0.4958906194101251 Se
atom_frac 0.5354229382862500 0.9062499999999999 0.4958906194101251 Se
atom_frac 0.7854229382862500 0.9062499999999999 0.4958906194101251 Se
atom_frac 0.0354229382862500 0.0312500000000000 0.6208906194101251 Se
atom_frac 0.2854229382862500 0.0312500000000000 0.6208906194101251 Se
atom_frac 0.5354229382862500 0.0312500000000000 0.6208906194101251 Se
atom_frac 0.7854229382862500 0.0312500000000000 0.6208906194101251 Se
atom_frac 0.0354229382862500 0.1562500000000000 0.6208906194101251 Se
atom_frac 0.2854229382862500 0.1562500000000000 0.6208906194101251 Se
atom_frac 0.5354229382862500 0.1562500000000000 0.6208906194101251 Se
atom_frac 0.7854229382862500 0.1562500000000000 0.6208906194101251 Se
atom_frac 0.0354229382862500 0.2812500000000000 0.6208906194101251 Se
atom_frac 0.2854229382862500 0.2812500000000000 0.6208906194101251 Se
atom_frac 0.5354229382862500 0.2812500000000000 0.6208906194101251 Se
atom_frac 0.7854229382862500 0.2812500000000000 0.6208906194101251 Se
atom_frac 0.0354229382862500 0.4062500000000000 0.6208906194101251 Se
atom_frac 0.2854229382862500 0.4062500000000000 0.6208906194101251 Se
atom_frac 0.5354229382862500 0.4062500000000000 0.6208906194101251 Se
atom_frac 0.7854229382862500 0.4062500000000000 0.6208906194101251 Se
atom_frac 0.0354229382862500 0.5312500000000000 0.6208906194101251 Se
atom_frac 0.2854229382862500 0.5312500000000000 0.6208906194101251 Se
atom_frac 0.5354229382862500 0.5312500000000000 0.6208906194101251 Se
atom_frac 0.7854229382862500 0.5312500000000000 0.6208906194101251 Se
atom_frac 0.0354229382862500 0.6562500000000000 0.6208906194101251 Se
atom_frac 0.2854229382862500 0.6562500000000000 0.6208906194101251 Se
atom_frac 0.5354229382862500 0.6562500000000000 0.6208906194101251 Se
atom_frac 0.7854229382862500 0.6562500000000000 0.6208906194101251 Se
atom_frac 0.0354229382862500 0.7812500000000000 0.6208906194101251 Se
atom_frac 0.2854229382862500 0.7812500000000000 0.6208906194101251 Se
atom_frac 0.5354229382862500 0.7812500000000000 0.6208906194101251 Se
atom_frac 0.7854229382862500 0.7812500000000000 0.6208906194101251 Se
atom_frac 0.0354229382862500 0.9062499999999999 0.6208906194101251 Se
atom_frac 0.2854229382862500 0.9062499999999999 0.6208906194101251 Se
atom_frac 0.5354229382862500 0.9062499999999999 0.6208906194101251 Se
atom_frac 0.7854229382862500 0.9062499999999999 0.6208906194101251 Se
atom_frac 0.0354229382862500 0.0312500000000000 0.7458906194101251 Se
atom_frac 0.2854229382862500 0.0312500000000000 0.7458906194101251 Se