#=======================================================
# FHI-aims file: geometry.in.primitive.supercell_2048.0300K
# Created using the Atomic Simulation Environment (ASE)
# Fri Apr  7 17:36:11 2023

# Additional information:
#  created from MB distrubtion
#  T = 300.0 K
#  quantum:             False
#  deterministic:       False
#  plus_minus:          False
#  gauge_eigenvectors:  False
#  Random seed:         749112937
#  Sample number:       1
#=======================================================
lattice_vector 46.5381034195480723 0.0000000000000000 0.0000000000000000 
lattice_vector 0.0000000000000000 33.5653562038561617 0.0000000000000000 
lattice_vector 0.0000000000000000 0.0000000000000000 35.2337721997360802 
atom 9.9860094894972455 3.1467521441115149 0.1447889795856728 Se
    velocity 2.2638080845665862 -0.0218688714660435 1.7076863855963438
atom 21.6205353443842654 3.1467521441115149 0.1447889795856728 Se
    velocity 3.3272612441202498 0.7800487873413167 -3.0783386941710953
atom 33.2550611992712817 3.1467521441115149 0.1447889795856728 Se
    velocity -2.7557636471587221 3.4724094243975432 -1.6728429324635004
atom 44.8895870541583051 3.1467521441115149 0.1447889795856728 Se
    velocity 3.0208596786435957 0.1881610836076397 0.6139080464263208
atom 9.9860094894972455 7.3424216695935351 0.1447889795856728 Se
    velocity -1.4679545235505154 0.9712077087978752 -0.5675072169454950
atom 21.6205353443842654 7.3424216695935351 0.1447889795856728 Se
    velocity -0.8724205307799326 0.1642206669608778 -0.5788441570413650
atom 33.2550611992712817 7.3424216695935351 0.1447889795856728 Se
    velocity -0.4772184468973070 -2.7154383130614215 -1.1376462590349765
atom 44.8895870541583051 7.3424216695935351 0.1447889795856728 Se
    velocity -0.7142486550323269 0.0532603477824021 -1.0796859586698255
atom 9.9860094894972455 11.5380911950755554 0.1447889795856728 Se
    velocity -0.7146255800270634 -3.1163711673142371 1.6311266647188565
atom 21.6205353443842654 11.5380911950755554 0.1447889795856728 Se
    velocity 0.9056636144414364 0.5826665006023436 3.3932071731723910
atom 33.2550611992712817 11.5380911950755554 0.1447889795856728 Se
    velocity -4.6048565381544950 3.1082948756010551 -2.0609442275381777
atom 44.8895870541583051 11.5380911950755554 0.1447889795856728 Se
    velocity -0.1725138045093714 -1.2692269933251494 -1.6247733940602525
atom 9.9860094894972455 15.7337607205575765 0.1447889795856728 Se
    velocity -0.6859036402087832 -0.4487497761300706 1.8154156553158014
atom 21.6205353443842654 15.7337607205575765 0.1447889795856728 Se
    velocity -1.4679831790027151 1.4074266427554638 1.5025030602958016
atom 33.2550611992712817 15.7337607205575765 0.1447889795856728 Se
    velocity -0.0573921334499857 -2.4977889341463064 -3.2563880140133303
atom 44.8895870541583051 15.7337607205575765 0.1447889795856728 Se
    velocity -1.0766792376659029 3.7882708900622455 -0.9087934621938889
atom 9.9860094894972455 19.9294302460395976 0.1447889795856728 Se
    velocity 2.6253064371994137 -1.4591768013871351 1.2550927892067034
atom 21.6205353443842654 19.9294302460395976 0.1447889795856728 Se
    velocity -0.3536352323072463 0.6616026565293281 -1.8998849133413254
atom 33.2550611992712817 19.9294302460395976 0.1447889795856728 Se
    velocity -0.3631354882502236 -0.9744520487584879 1.5161534588760111
atom 44.8895870541583051 19.9294302460395976 0.1447889795856728 Se
    velocity -1.0422566218327343 2.9999726265874078 -0.6011000603566116
atom 9.9860094894972455 24.1250997715216151 0.1447889795856728 Se
    velocity 0.7028963962779089 0.7237275597958940 0.5461892000058937
atom 21.6205353443842654 24.1250997715216151 0.1447889795856728 Se
    velocity 0.3419794456423396 1.6755134937263463 -0.2275431548319827
atom 33.2550611992712817 24.1250997715216151 0.1447889795856728 Se
    velocity -1.5896198009137870 -0.8166329173691328 1.5568158040666469
atom 44.8895870541583051 24.1250997715216151 0.1447889795856728 Se
    velocity -1.5091348960412045 -1.1829603274647089 -1.1065124096533647
atom 9.9860094894972455 28.3207692970036362 0.1447889795856728 Se
    velocity 0.2389302159945838 1.4543537574772627 1.0070598353936455
atom 21.6205353443842654 28.3207692970036362 0.1447889795856728 Se
    velocity -2.7398346279545760 -0.0574871987394511 0.2385134318451381
atom 33.2550611992712817 28.3207692970036362 0.1447889795856728 Se
    velocity -0.9249295669414512 -0.8864365156420067 2.3992223150907184
atom 44.8895870541583051 28.3207692970036362 0.1447889795856728 Se
    velocity -1.4328722911095875 -0.6426417938247873 -0.2285800702390137
atom 9.9860094894972455 32.5164388224856538 0.1447889795856728 Se
    velocity 2.1885851282356712 2.2298832590490378 2.1522284731872512
atom 21.6205353443842654 32.5164388224856538 0.1447889795856728 Se
    velocity -1.2890850776992395 0.0785767730359873 0.4758631740041836
atom 33.2550611992712817 32.5164388224856538 0.1447889795856728 Se
    velocity -1.6864580009406633 1.4897882363633959 -1.5478850325093605
atom 44.8895870541583051 32.5164388224856538 0.1447889795856728 Se
    velocity 0.1938931674256709 -1.0204729252851252 -0.4346523067970048
atom 9.9860094894972455 3.1467521441115149 4.5490105045526832 Se
    velocity -1.0036063587029478 1.1855808283236582 3.0470158959964837
atom 21.6205353443842654 3.1467521441115149 4.5490105045526832 Se
    velocity 0.2692078870059028 -0.5334648337020914 -1.4297390300862816
atom 33.2550611992712817 3.1467521441115149 4.5490105045526832 Se
    velocity 1.1152710949426436 0.7317949615768026 -2.6701941059008338
atom 44.8895870541583051 3.1467521441115149 4.5490105045526832 Se
    velocity 2.1003040613386741 -0.7315881215506572 -3.1779180675821199
atom 9.9860094894972455 7.3424216695935351 4.5490105045526832 Se
    velocity 1.3055230238678983 -1.2195983183988630 -3.1981590486508265
atom 21.6205353443842654 7.3424216695935351 4.5490105045526832 Se
    velocity -0.0914786072131216 -0.6708116096162571 -1.8516669700824397
atom 33.2550611992712817 7.3424216695935351 4.5490105045526832 Se
    velocity 1.7091133061833648 -1.0477337039138830 -1.0114402660305282
atom 44.8895870541583051 7.3424216695935351 4.5490105045526832 Se
    velocity -0.7214896769363552 2.8582464073818170 1.2656593881054119
atom 9.9860094894972455 11.5380911950755554 4.5490105045526832 Se
    velocity -0.4121711224930490 -3.9938663007707511 1.4746710515127195
atom 21.6205353443842654 11.5380911950755554 4.5490105045526832 Se
    velocity -1.2809726479968300 1.9668946228065791 2.4741291880237837
atom 33.2550611992712817 11.5380911950755554 4.5490105045526832 Se
    velocity 1.8934660055925814 -0.9587163520826689 1.9757100366759710
atom 44.8895870541583051 11.5380911950755554 4.5490105045526832 Se
    velocity 3.0571798957480461 1.2568935427513968 -2.3956104706736503
atom 9.9860094894972455 15.7337607205575765 4.5490105045526832 Se
    velocity 0.2293745019398007 1.5399836308225983 -0.1742441105082238
atom 21.6205353443842654 15.7337607205575765 4.5490105045526832 Se
    velocity 2.9274687277125993 -0.8396386993486732 -3.1463986913664930
atom 33.2550611992712817 15.7337607205575765 4.5490105045526832 Se
    velocity -1.0982145972791155 0.2283216883888014 -0.6513631779886173
atom 44.8895870541583051 15.7337607205575765 4.5490105045526832 Se
    velocity 0.1086516142106474 -0.3528127209255840 2.0477852877593654
atom 9.9860094894972455 19.9294302460395976 4.5490105045526832 Se
    velocity -2.3971613516584300 -0.9443738376149318 -3.3638244131379214
atom 21.6205353443842654 19.9294302460395976 4.5490105045526832 Se
    velocity -2.1879937629451618 1.9807213762091014 -1.6753249862982709
atom 33.2550611992712817 19.9294302460395976 4.5490105045526832 Se
    velocity -2.5501788638465190 0.5741199724310224 1.4789993908683570
atom 44.8895870541583051 19.9294302460395976 4.5490105045526832 Se
    velocity 1.2138834898787063 2.4096845106077280 0.2980395044302654
atom 9.9860094894972455 24.1250997715216151 4.5490105045526832 Se
    velocity -1.1982109550231230 -4.8060143401075752 0.1607505502090458
atom 21.6205353443842654 24.1250997715216151 4.5490105045526832 Se
    velocity 0.2389728301414293 2.5626436089888371 2.9400489344151350
atom 33.2550611992712817 24.1250997715216151 4.5490105045526832 Se
    velocity 0.5262190220469605 1.7881198993836824 -0.8739177623584803
atom 44.8895870541583051 24.1250997715216151 4.5490105045526832 Se
    velocity 0.7678390856250764 -0.2617317059608968 -0.1019452698927769
atom 9.9860094894972455 28.3207692970036362 4.5490105045526832 Se
    velocity 1.4049096219451611 0.9000481395934185 -0.7914243181154860
atom 21.6205353443842654 28.3207692970036362 4.5490105045526832 Se
    velocity -1.8267411474279220 0.6577059651973112 -3.0544619703334592
atom 33.2550611992712817 28.3207692970036362 4.5490105045526832 Se
    velocity 0.5631361759178307 1.3420229579097032 0.0126777078644341
atom 44.8895870541583051 28.3207692970036362 4.5490105045526832 Se
    velocity -2.0233180435221434 -0.3480410940394881 0.7968094893189402
atom 9.9860094894972455 32.5164388224856538 4.5490105045526832 Se
    velocity 5.1237748997300381 0.8758883551732791 -2.3428069606299009
atom 21.6205353443842654 32.5164388224856538 4.5490105045526832 Se
    velocity -2.8471933678929111 -0.4512204257686036 -0.4654878812677587
atom 33.2550611992712817 32.5164388224856538 4.5490105045526832 Se
    velocity -0.0496886642126452 -1.2025346764615421 -1.9918045112725347
atom 44.8895870541583051 32.5164388224856538 4.5490105045526832 Se
    velocity 0.5579958673310814 -0.5786010434155501 -0.5420123688737799
atom 9.9860094894972455 3.1467521441115149 8.9532320295196914 Se
    velocity 0.2671769363831159 0.0936495602869066 0.6816303229517491
atom 21.6205353443842654 3.1467521441115149 8.9532320295196914 Se
    velocity 0.8635282793448015 -0.7204213749038818 -3.3937934808453454
atom 33.2550611992712817 3.1467521441115149 8.9532320295196914 Se
    velocity -0.0730566112965488 0.0745412739413054 -0.2576063224792141
atom 44.8895870541583051 3.1467521441115149 8.9532320295196914 Se
    velocity -3.6146825170418007 -2.0379785646265418 -1.3115146158112774
atom 9.9860094894972455 7.3424216695935351 8.9532320295196914 Se
    velocity 1.8985774723571853 -0.7468818971230887 2.0649412002485024
atom 21.6205353443842654 7.3424216695935351 8.9532320295196914 Se
    velocity -1.6016577681338198 0.5224296123597537 1.9471041773270534
atom 33.2550611992712817 7.3424216695935351 8.9532320295196914 Se
    velocity -1.5017252535216716 0.6774618086930863 -1.9640602532039884
atom 44.8895870541583051 7.3424216695935351 8.9532320295196914 Se
    velocity 0.0130285245767685 1.6402589378686985 -0.0769143164718370
atom 9.9860094894972455 11.5380911950755554 8.9532320295196914 Se
    velocity 1.9823529585141728 -2.9287338016979998 -2.0208341721466390
atom 21.6205353443842654 11.5380911950755554 8.9532320295196914 Se
    velocity -2.1454235416437886 1.5316961991263771 0.0548892005722183
atom 33.2550611992712817 11.5380911950755554 8.9532320295196914 Se
    velocity -0.0072225242938430 1.1574398722564108 -2.0601832221117751
atom 44.8895870541583051 11.5380911950755554 8.9532320295196914 Se
    velocity -2.4120544963666362 3.2622916800688104 0.9850153450889073
atom 9.9860094894972455 15.7337607205575765 8.9532320295196914 Se
    velocity -2.0088766072798023 -1.1220486382465646 0.4407773436477819
atom 21.6205353443842654 15.7337607205575765 8.9532320295196914 Se
    velocity 1.4719967502551961 1.1387180021827223 -1.6070688851752994
atom 33.2550611992712817 15.7337607205575765 8.9532320295196914 Se
    velocity 2.4764147870793103 -1.0811228749974788 -0.6689774426504044
atom 44.8895870541583051 15.7337607205575765 8.9532320295196914 Se
    velocity -1.8756489186688596 0.0341845489959779 0.4901916153104613
atom 9.9860094894972455 19.9294302460395976 8.9532320295196914 Se
    velocity -1.9651886749518084 -3.1246592822555725 3.1138293528047365
atom 21.6205353443842654 19.9294302460395976 8.9532320295196914 Se
    velocity -1.6697500675493659 -1.1872777570233672 3.0045446975116432
atom 33.2550611992712817 19.9294302460395976 8.9532320295196914 Se
    velocity -0.2757501145842609 0.4560676255574181 0.6831881495367879
atom 44.8895870541583051 19.9294302460395976 8.9532320295196914 Se
    velocity 2.0878654042904223 -1.0653284972687900 -1.2311171958985674
atom 9.9860094894972455 24.1250997715216151 8.9532320295196914 Se
    velocity 0.0871185786145758 -0.1252198746381200 -2.0296583453002377
atom 21.6205353443842654 24.1250997715216151 8.9532320295196914 Se
    velocity 1.4734644467324893 -0.8469695685161779 -1.3768335753935279
atom 33.2550611992712817 24.1250997715216151 8.9532320295196914 Se
    velocity -1.9259776034367939 -0.3735926690458566 -0.9422463985959910
atom 44.8895870541583051 24.1250997715216151 8.9532320295196914 Se
    velocity 1.5699666190557393 -0.1817986822841375 0.6341917141429783
atom 9.9860094894972455 28.3207692970036362 8.9532320295196914 Se
    velocity 2.5439266645429299 -1.8252005132945925 -2.5884101432823332
atom 21.6205353443842654 28.3207692970036362 8.9532320295196914 Se
    velocity 0.6850212334434455 2.6381184446513091 -1.0942031329375712
atom 33.2550611992712817 28.3207692970036362 8.9532320295196914 Se
    velocity -4.1506079729407919 -3.0301989883821170 1.6298413934776459
atom 44.8895870541583051 28.3207692970036362 8.9532320295196914 Se
    velocity -1.3650792439842057 0.0589211450813910 0.4698880780469815
atom 9.9860094894972455 32.5164388224856538 8.9532320295196914 Se
    velocity -2.3018488661388661 2.5655937259017660 0.1878946457842762
atom 21.6205353443842654 32.5164388224856538 8.9532320295196914 Se
    velocity 0.6327135332791707 -0.3605461502549453 0.6604877865998342
atom 33.2550611992712817 32.5164388224856538 8.9532320295196914 Se
    velocity 4.0856389876011425 0.3389574595290156 -2.1353954041604930
atom 44.8895870541583051 32.5164388224856538 8.9532320295196914 Se
    velocity 0.2947285928403777 -0.2456790524495027 -0.3940982454013112
atom 9.9860094894972455 3.1467521441115149 13.3574535544867015 Se
    velocity -0.7337580150414402 0.3217185233417702 -4.1551479537905136
atom 21.6205353443842654 3.1467521441115149 13.3574535544867015 Se
    velocity -1.3210653401930792 0.3979066281236021 1.6825475921972035
atom 33.2550611992712817 3.1467521441115149 13.3574535544867015 Se
    velocity -1.1417373712481720 0.9334941427809070 1.3742782494668193
atom 44.8895870541583051 3.1467521441115149 13.3574535544867015 Se
    velocity 1.0947950500836545 3.4790794317327474 0.5086805409270028
atom 9.9860094894972455 7.3424216695935351 13.3574535544867015 Se
    velocity 0.3707102429741498 -1.0518931273262362 2.6635819309336037
atom 21.6205353443842654 7.3424216695935351 13.3574535544867015 Se
    velocity 2.6071319983905887 -4.3574278118307781 1.5446076325657849
atom 33.2550611992712817 7.3424216695935351 13.3574535544867015 Se
    velocity -0.7717846753025247 0.1480773028081088 3.0227303552595566
atom 44.8895870541583051 7.3424216695935351 13.3574535544867015 Se
    velocity 0.3746915384689729 -0.9331096413838622 1.8644903799498658
atom 9.9860094894972455 11.5380911950755554 13.3574535544867015 Se
    velocity -0.9802785345176621 -0.2692612647323822 -1.1819502978850778
atom 21.6205353443842654 11.5380911950755554 13.3574535544867015 Se
    velocity -1.5064167169978422 0.4034374535583339 -0.6216747632960987
atom 33.2550611992712817 11.5380911950755554 13.3574535544867015 Se
    velocity -3.9667758470793140 5.3631927920764468 -0.1073036563401685
atom 44.8895870541583051 11.5380911950755554 13.3574535544867015 Se
    velocity 0.6714478482771802 0.8062096251858771 3.8234889415404303
atom 9.9860094894972455 15.7337607205575765 13.3574535544867015 Se
    velocity -0.4768549939730102 0.4812739880654268 -0.2187863188152255
atom 21.6205353443842654 15.7337607205575765 13.3574535544867015 Se
    velocity -1.3532764609694576 2.4637426775896913 -1.4414979612529275
atom 33.2550611992712817 15.7337607205575765 13.3574535544867015 Se
    velocity 4.4755918096850875 4.0833450096819766 1.2317953494010840
atom 44.8895870541583051 15.7337607205575765 13.3574535544867015 Se
    velocity 0.3389653790181156 1.7656554075649760 0.2505258110903554
atom 9.9860094894972455 19.9294302460395976 13.3574535544867015 Se
    velocity -0.6335832576409960 -2.4088274005783341 2.1059599552537920
atom 21.6205353443842654 19.9294302460395976 13.3574535544867015 Se
    velocity 3.7768201259540417 -0.1208584217695993 -0.9722212094061181
atom 33.2550611992712817 19.9294302460395976 13.3574535544867015 Se
    velocity -0.4990404605374791 0.4201182861483849 0.8786329298730370
atom 44.8895870541583051 19.9294302460395976 13.3574535544867015 Se
    velocity -0.1027970077113491 -1.1326877614652213 -2.4115448791374998
atom 9.9860094894972455 24.1250997715216151 13.3574535544867015 Se
    velocity -1.1846130436683691 -1.8071101833007821 0.3265056766725796
atom 21.6205353443842654 24.1250997715216151 13.3574535544867015 Se
    velocity 2.0206291733906299 2.0359481247928763 0.4596225608382207
atom 33.2550611992712817 24.1250997715216151 13.3574535544867015 Se
    velocity 0.9697572052628310 -1.8287443571376327 1.1539273133277852
atom 44.8895870541583051 24.1250997715216151 13.3574535544867015 Se
    velocity 1.1441528313347036 -1.8473944607593038 -0.6966522276336520
atom 9.9860094894972455 28.3207692970036362 13.3574535544867015 Se
    velocity 2.1904278482048962 -1.6240163823183340 -1.3107475985165222
atom 21.6205353443842654 28.3207692970036362 13.3574535544867015 Se
    velocity -1.1212047289147080 -0.0892526650872069 1.1922476610870198
atom 33.2550611992712817 28.3207692970036362 13.3574535544867015 Se
    velocity -1.1707522052365995 2.5528262572266160 -1.1539006477932408
atom 44.8895870541583051 28.3207692970036362 13.3574535544867015 Se
    velocity 1.3706946618325553 -0.5825094898293725 -1.0652826718839123
atom 9.9860094894972455 32.5164388224856538 13.3574535544867015 Se
    velocity 0.8038362960635674 -2.6724002389452681 -0.4565214230689019
atom 21.6205353443842654 32.5164388224856538 13.3574535544867015 Se
    velocity -0.0466719673610970 -0.6739447192555320 0.9093636058324306
atom 33.2550611992712817 32.5164388224856538 13.3574535544867015 Se
    velocity 2.0920633540793103 -2.8795835617549357 0.0711616448714719
atom 44.8895870541583051 32.5164388224856538 13.3574535544867015 Se
    velocity 2.1171924061505023 -0.7966991758588449 -2.3944261493268115
atom 9.9860094894972455 3.1467521441115149 17.7616750794537133 Se
    velocity -2.1642865950516885 2.0015324164952126 2.9777355463721307
atom 21.6205353443842654 3.1467521441115149 17.7616750794537133 Se
    velocity -2.6900862091112745 2.6851963258369698 2.9575328330480679
atom 33.2550611992712817 3.1467521441115149 17.7616750794537133 Se
    velocity -1.0275599788849603 1.2056046914335663 -2.5022619299712310
atom 44.8895870541583051 3.1467521441115149 17.7616750794537133 Se
    velocity -2.8808037450516264 -0.1601426029666626 1.4225616866009394
atom 9.9860094894972455 7.3424216695935351 17.7616750794537133 Se
    velocity 0.9437440704808125 1.2869467403892019 -0.6555245395979656
atom 21.6205353443842654 7.3424216695935351 17.7616750794537133 Se
    velocity -1.3769663328370421 1.6342439172239878 3.0994586769635797
atom 33.2550611992712817 7.3424216695935351 17.7616750794537133 Se
    velocity 0.9829298659417591 2.0091667809582958 0.8414994447406019
atom 44.8895870541583051 7.3424216695935351 17.7616750794537133 Se
    velocity -2.7515486591585110 2.1085845281028890 -1.6786404294103263
atom 9.9860094894972455 11.5380911950755554 17.7616750794537133 Se
    velocity 3.1912724122270455 1.2344855158526304 0.6739770688750727
atom 21.6205353443842654 11.5380911950755554 17.7616750794537133 Se
    velocity -1.3213918318528206 -1.6554917887021723 2.5704491916703143
atom 33.2550611992712817 11.5380911950755554 17.7616750794537133 Se
    velocity -0.7709460196810286 -0.4103614924325892 1.0643216536674578
atom 44.8895870541583051 11.5380911950755554 17.7616750794537133 Se
    velocity -2.3824597097008056 -1.9739607553444878 0.2170980986007256
atom 9.9860094894972455 15.7337607205575765 17.7616750794537133 Se
    velocity 1.2416306874441270 -0.3761423228565026 -1.1344512304643821
atom 21.6205353443842654 15.7337607205575765 17.7616750794537133 Se
    velocity 2.0070914956974408 -5.7619118907980278 -1.5564642601344316
atom 33.2550611992712817 15.7337607205575765 17.7616750794537133 Se
    velocity -0.2645347664009925 -0.5638730941377315 0.7616576965098317
atom 44.8895870541583051 15.7337607205575765 17.7616750794537133 Se
    velocity 1.1374742194293497 0.4935898741120409 1.6509751114649236
atom 9.9860094894972455 19.9294302460395976 17.7616750794537133 Se
    velocity 0.0278439354736398 -0.8883059253238035 -0.8789125667997733
atom 21.6205353443842654 19.9294302460395976 17.7616750794537133 Se
    velocity -0.7860956347946382 1.0711000263375596 0.4960088301272884
atom 33.2550611992712817 19.9294302460395976 17.7616750794537133 Se
    velocity 0.1406486398301160 -1.9249378091024221 -0.6411553073087890
atom 44.8895870541583051 19.9294302460395976 17.7616750794537133 Se
    velocity -0.6344890929988660 -1.6442243851835336 -1.2123759658923103
atom 9.9860094894972455 24.1250997715216151 17.7616750794537133 Se
    velocity -1.7524632860583804 -1.9075649682275426 -0.3979082068593635
atom 21.6205353443842654 24.1250997715216151 17.7616750794537133 Se
    velocity 3.0647076665151025 -0.2862593418093792 0.2874862359619104
atom 33.2550611992712817 24.1250997715216151 17.7616750794537133 Se
    velocity -0.1161651478591923 3.6290868708661250 3.9619821636573334
atom 44.8895870541583051 24.1250997715216151 17.7616750794537133 Se
    velocity 1.0225833318615942 -3.4697101158052397 0.6211784889039380
atom 9.9860094894972455 28.3207692970036362 17.7616750794537133 Se
    velocity 2.2363338681206084 -1.0600981878288440 0.8078249537110760
atom 21.6205353443842654 28.3207692970036362 17.7616750794537133 Se
    velocity 2.5637686898473655 -2.0349161098671820 0.6378218674548287
atom 33.2550611992712817 28.3207692970036362 17.7616750794537133 Se
    velocity 0.5490151797053480 -1.5725368661048207 2.9873467649426888
atom 44.8895870541583051 28.3207692970036362 17.7616750794537133 Se
    velocity 0.2411465919303781 -2.7961366960293619 -1.1598445494525613
atom 9.9860094894972455 32.5164388224856538 17.7616750794537133 Se
    velocity 0.7214818880625884 -2.8721819489941689 0.4120564379819334
atom 21.6205353443842654 32.5164388224856538 17.7616750794537133 Se
    velocity 0.8974732094896016 0.6433465868276641 -0.4586730728102500
atom 33.2550611992712817 32.5164388224856538 17.7616750794537133 Se
    velocity 4.5716757329290827 4.1756447505817622 -1.9729337646187879
atom 44.8895870541583051 32.5164388224856538 17.7616750794537133 Se
    velocity 2.6231095612844224 -3.0890159006242581 0.0804776464691680
atom 9.9860094894972455 3.1467521441115149 22.1658966044207233 Se
    velocity 1.5018154042104614 1.2298487825096738 -0.5240242102492211
atom 21.6205353443842654 3.1467521441115149 22.1658966044207233 Se
    velocity 1.3757200791141249 -1.7510972746130749 -0.8375817260619739
atom 33.2550611992712817 3.1467521441115149 22.1658966044207233 Se
    velocity -2.4966861789542540 1.4671490985626405 1.5541098524366910
atom 44.8895870541583051 3.1467521441115149 22.1658966044207233 Se
    velocity 0.7842596752520254 1.0792746475044297 2.9608577363133848
atom 9.9860094894972455 7.3424216695935351 22.1658966044207233 Se
    velocity 1.0282047806666288 -0.7712566374132365 -2.2680523274299729
atom 21.6205353443842654 7.3424216695935351 22.1658966044207233 Se
    velocity -0.0415171921770020 -0.3739134349542215 0.4950265676369504
atom 33.2550611992712817 7.3424216695935351 22.1658966044207233 Se
    velocity 2.5899495225201004 1.0559383870584356 -1.3523734915263528
atom 44.8895870541583051 7.3424216695935351 22.1658966044207233 Se
    velocity -0.7312861962922199 -0.4924818533106151 0.8695045900569147
atom 9.9860094894972455 11.5380911950755554 22.1658966044207233 Se
    velocity 1.5359275466525357 -1.2941632507582639 2.1996745234116921
atom 21.6205353443842654 11.5380911950755554 22.1658966044207233 Se
    velocity 1.7219344293256347 -3.4988543882214245 -1.3486539753754492
atom 33.2550611992712817 11.5380911950755554 22.1658966044207233 Se
    velocity 2.0367923107836132 1.6478516298711650 0.5636433173519360
atom 44.8895870541583051 11.5380911950755554 22.1658966044207233 Se
    velocity 1.1590884808275457 0.1905997112139820 0.7308729136248613
atom 9.9860094894972455 15.7337607205575765 22.1658966044207233 Se
    velocity 0.6641054041643074 -2.3138556144891740 2.3373159117239011
atom 21.6205353443842654 15.7337607205575765 22.1658966044207233 Se
    velocity 3.0529143288869260 -0.7894113567019401 2.0479767071586599
atom 33.2550611992712817 15.7337607205575765 22.1658966044207233 Se
    velocity 0.4085770890490992 1.0450390852572564 2.1092331954517554
atom 44.8895870541583051 15.7337607205575765 22.1658966044207233 Se
    velocity -0.5165700757420101 -0.2290259817190414 -3.4502967412200127
atom 9.9860094894972455 19.9294302460395976 22.1658966044207233 Se
    velocity -3.5452790628828246 1.4971747073113653 0.1152128033946673
atom 21.6205353443842654 19.9294302460395976 22.1658966044207233 Se
    velocity -2.5971984789506806 -0.7331047810499581 0.6817446714449454
atom 33.2550611992712817 19.9294302460395976 22.1658966044207233 Se
    velocity 0.6614403697040695 2.8136866953456572 -2.8416020544167266
atom 44.8895870541583051 19.9294302460395976 22.1658966044207233 Se
    velocity -1.6207086687037529 -1.3082595697070287 3.4799684671143787
atom 9.9860094894972455 24.1250997715216151 22.1658966044207233 Se
    velocity -2.2243717122081041 0.8857235365003269 0.8745327772803024
atom 21.6205353443842654 24.1250997715216151 22.1658966044207233 Se
    velocity 0.3060290963602917 -1.4041965230964559 -1.8602661557901274
atom 33.2550611992712817 24.1250997715216151 22.1658966044207233 Se
    velocity 0.0129754340935190 1.1598936673836850 1.0773631320802939
atom 44.8895870541583051 24.1250997715216151 22.1658966044207233 Se
    velocity -0.7889100355069049 -0.5207039657858549 -0.9621529976152718
atom 9.9860094894972455 28.3207692970036362 22.1658966044207233 Se
    velocity 1.0211245855697872 1.4302337719775529 0.1805884335841167
atom 21.6205353443842654 28.3207692970036362 22.1658966044207233 Se
    velocity 3.5403126284214181 -0.9688269206377633 0.7145415019127462
atom 33.2550611992712817 28.3207692970036362 22.1658966044207233 Se
    velocity 0.3731968625801215 -0.2493129619037950 2.5146055812167707
atom 44.8895870541583051 28.3207692970036362 22.1658966044207233 Se
    velocity 2.6165389512439714 -2.2983487481686069 -1.8888598658000086
atom 9.9860094894972455 32.5164388224856538 22.1658966044207233 Se
    velocity -0.8661778697937081 0.7551951498621605 0.1703001808996750
atom 21.6205353443842654 32.5164388224856538 22.1658966044207233 Se
    velocity -1.9901664812784752 4.4589537893939921 2.4549773723770496
atom 33.2550611992712817 32.5164388224856538 22.1658966044207233 Se
    velocity -2.3121703518318499 4.5686332966319299 0.0232011568060591
atom 44.8895870541583051 32.5164388224856538 22.1658966044207233 Se
    velocity 2.1626896454885545 0.9420852345313152 0.5946433486614201
atom 9.9860094894972455 3.1467521441115149 26.5701181293877333 Se
    velocity 2.0188889248569213 4.4138215067756663 -4.7567752022461844
atom 21.6205353443842654 3.1467521441115149 26.5701181293877333 Se
    velocity -0.8231033874984759 -4.0742901945669923 2.0267329948104060
atom 33.2550611992712817 3.1467521441115149 26.5701181293877333 Se
    velocity 0.0869730784146691 1.0940431829189949 -0.2929888906216018
atom 44.8895870541583051 3.1467521441115149 26.5701181293877333 Se
    velocity -1.9021183828545498 1.9816202423660454 4.3716404803817186
atom 9.9860094894972455 7.3424216695935351 26.5701181293877333 Se
    velocity -1.7206797808790308 -3.7002967918175980 1.4350589558096867
atom 21.6205353443842654 7.3424216695935351 26.5701181293877333 Se
    velocity 0.5901558424104194 1.1429574308578372 -0.0143062517475100
atom 33.2550611992712817 7.3424216695935351 26.5701181293877333 Se
    velocity 1.6120399817010185 0.6273018129920749 0.8310950998081560
atom 44.8895870541583051 7.3424216695935351 26.5701181293877333 Se
    velocity -5.0787007466384058 -3.4866912246259298 0.4155902444166198
atom 9.9860094894972455 11.5380911950755554 26.5701181293877333 Se
    velocity 2.0734352282795281 -2.8573408057037040 2.6227877480899036
atom 21.6205353443842654 11.5380911950755554 26.5701181293877333 Se
    velocity 0.0499080096080516 1.0402636197094433 1.9695563464918047
atom 33.2550611992712817 11.5380911950755554 26.5701181293877333 Se
    velocity 2.1349558653143652 1.1458834161228837 -0.9833427426119866
atom 44.8895870541583051 11.5380911950755554 26.5701181293877333 Se
    velocity -0.5849440419132758 0.9957651099112831 2.1324189020488538
atom 9.9860094894972455 15.7337607205575765 26.5701181293877333 Se
    velocity -2.2824847025835737 1.3229523638245233 1.9226895670297264
atom 21.6205353443842654 15.7337607205575765 26.5701181293877333 Se
    velocity 1.2460164841587764 1.0766994879335205 -1.5224594906323208
atom 33.2550611992712817 15.7337607205575765 26.5701181293877333 Se
    velocity 0.1728806462743601 0.6307863606661436 1.0995224665934873
atom 44.8895870541583051 15.7337607205575765 26.5701181293877333 Se
    velocity 0.7975557907483446 0.8617286999321895 0.7986816895756961
atom 9.9860094894972455 19.9294302460395976 26.5701181293877333 Se
    velocity 1.9319976237043168 1.7407242505525335 0.7835323997072097
atom 21.6205353443842654 19.9294302460395976 26.5701181293877333 Se
    velocity -3.1704182939751586 1.8019823498749223 -1.3040819900776395
atom 33.2550611992712817 19.9294302460395976 26.5701181293877333 Se
    velocity -0.9411074573745936 -2.1607074856067938 -2.5499557902334553