#=======================================================
# FHI-aims file: /Users/flokno/working/projects/so3krates/dev_SnSe/test_10_EOS_easy/so3krates_L1/eos/006/relaxation/geometry.in.next_step
# Created using the Atomic Simulation Environment (ASE)
# Fri Apr 14 11:25:23 2023

# Additional information:
#  Relaxed with BFGS, fmax=0.100 meV/AA
#  nsteps = 20
#  residual force  = 0.010147 meV/AA
#=======================================================
lattice_vector 11.6122669899580000 -0.0000000000000000 0.0000000000000000 
lattice_vector 0.0000000000000000 4.1988460084029997 0.0000000000000000 
lattice_vector 0.0000000000000000 0.0000000000000000 4.3967961009160001 
atom_frac 0.8586055903910000 0.7500000000000000 0.0352446602680000 Se
atom_frac 0.1413944096090000 0.2500000000000000 0.9647553397319999 Se
atom_frac 0.6413944096090000 0.2500000000000000 0.5352446602680000 Se
atom_frac 0.3586055903910000 0.7500000000000000 0.4647553397320000 Se
atom_frac 0.1213057284450000 0.7500000000000000 0.3941763939849999 Sn
atom_frac 0.8786942715550000 0.2500000000000000 0.6058236060150000 Sn
atom_frac 0.3786942715550000 0.2500000000000000 0.8941763939849999 Sn
atom_frac 0.6213057284450000 0.7500000000000000 0.1058236060150000 Sn
