#=======================================================
# FHI-aims file: /cfs/klemming/projects/snic/snic2021-1-10/dardel-test/flokno/projects/so3krates/dev_SnSe/test_10_EOS_easy/finer/dft_01/eos/016/relaxation/geometry.in.next_step
# Created using the Atomic Simulation Environment (ASE)
# Mon Apr 17 17:29:12 2023

# Additional information:
#  Relaxed with BFGS, fmax=0.100 meV/AA
#  nsteps = 21
#  residual force  = 0.089603 meV/AA
#=======================================================
lattice_vector 11.6353989959140005 -0.0000000000000000 0.0000000000000000 
lattice_vector 0.0000000000000000 4.2072102434790004 0.0000000000000000 
lattice_vector 0.0000000000000000 0.0000000000000000 4.4055546588860004 
atom_frac 0.8580206487960000 0.7499998644510000 0.0320533162530000 Se
atom_frac 0.1419794005700000 0.2500000389950000 0.9679467342490000 Se
atom_frac 0.6419791665850000 0.2500000251440000 0.5320531426830000 Se
atom_frac 0.3580207536930000 0.7499999500190000 0.4679469342860000 Se
atom_frac 0.1210454042360000 0.7499999015990000 0.3952540309810000 Sn
atom_frac 0.8789546099850000 0.2500001037330000 0.6047459301810000 Sn
atom_frac 0.3789546696900000 0.2499999998610000 0.8952538834620000 Sn
atom_frac 0.6210453464460000 0.7500001161990000 0.1047460279060000 Sn
