#=======================================================
# FHI-aims file: eos/009/geometry.in
# Created using the Atomic Simulation Environment (ASE)
# Fri Apr 14 09:34:59 2023
#=======================================================
lattice_vector 11.7510590256947367 -0.0000000000000000 0.0000000000000000 
lattice_vector 0.0000000000000000 4.2490314188619998 0.0000000000000000 
lattice_vector 0.0000000000000000 0.0000000000000000 4.4493474487356153 
atom 10.0860308710336728 3.1867735641464998 0.1462724963475520 Se
atom 1.6650281546610641 1.0622578547154999 4.3030749523880667 Se
atom 7.5405576675084314 1.0622578547154999 2.3709462207153571 Se
atom 4.2105013581863036 3.1867735641464998 2.0784012280202591 Se
atom 1.4094443154371716 3.1867735641464998 1.7707355174319661 Sn
atom 10.3416147102575842 1.0622578547154999 2.6786119313036503 Sn
atom 4.4660851974101963 1.0622578547154999 3.9954092417997744 Sn
atom 7.2849738282845387 3.1867735641464998 0.4539382069358462 Sn
