#=======================================================
# FHI-aims file: eos/005/geometry.in
# Created using the Atomic Simulation Environment (ASE)
# Mon Apr 17 17:07:11 2023
#=======================================================
lattice_vector 11.5081729631557703 -0.0000000000000000 0.0000000000000000 
lattice_vector 0.0000000000000000 4.1612069505587499 0.0000000000000000 
lattice_vector 0.0000000000000000 0.0000000000000000 4.3573825900511194 
atom 9.8775597605103371 3.1209052129190624 0.1432491475057227 Se
atom 1.6306132026454316 1.0403017376396875 4.2141334425453998 Se
atom 7.3846996842233148 1.0403017376396875 2.3219404425312797 Se
atom 4.1234732789324520 3.1209052129190624 2.0354421475198401 Se
atom 1.3803121002558913 3.1209052129190624 1.7341356691385890 Sn
atom 10.1278608628998956 1.0403017376396875 2.6232469209125315 Sn
atom 4.3737743813219936 1.0403017376396875 3.9128269641641489 Sn
atom 7.1343985818337741 3.1209052129190624 0.4445556258869753 Sn
