#=======================================================
# FHI-aims file: eos/017/geometry.in
# Created using the Atomic Simulation Environment (ASE)
# Mon Apr 17 17:11:54 2023
#=======================================================
lattice_vector 11.6469649988923241 -0.0000000000000000 0.0000000000000000 
lattice_vector 0.0000000000000000 4.2113923610177508 0.0000000000000000 
lattice_vector 0.0000000000000000 0.0000000000000000 4.4099339378708322 
atom 9.9966861093808159 3.1585442707633127 0.1449767754153395 Se
atom 1.6502788895115075 1.0528480902544377 4.2649571624554961 Se
atom 7.4737613889576684 1.0528480902544377 2.3499437443507527 Se
atom 4.1732036099346539 3.1585442707633127 2.0599901935200799 Se
atom 1.3969590803594802 3.1585442707633127 1.7550498681633762 Sn
atom 10.2500059185328620 1.0528480902544377 2.6548840697074567 Sn
atom 4.4265234190866813 1.0528480902544377 3.9600168370987925 Sn
atom 7.2204415798056409 3.1585442707633127 0.4499171007720444 Sn
