#=======================================================
# FHI-aims file: /Users/flokno/working/projects/so3krates/dev_SnSe/test_10_EOS_easy/finer/so3krates_L2/eos/000/relaxation/geometry.in.next_step
# Created using the Atomic Simulation Environment (ASE)
# Mon Apr 17 17:12:38 2023

# Additional information:
#  Relaxed with BFGS, fmax=0.100 meV/AA
#  nsteps = 22
#  residual force  = 0.026720 meV/AA
#=======================================================
lattice_vector 11.4503429482660000 -0.0000000000000000 0.0000000000000000 
lattice_vector 0.0000000000000000 4.1402963628679998 0.0000000000000000 
lattice_vector 0.0000000000000000 0.0000000000000000 4.3354861951260002 
atom_frac 0.8587985370580000 0.7500000000000000 0.0309358976910000 Se
atom_frac 0.1412014629420000 0.2500000000000000 0.9690641023089999 Se
atom_frac 0.6412014629420000 0.2500000000000000 0.5309358976910000 Se
atom_frac 0.3587985370580000 0.7500000000000000 0.4690641023090000 Se
atom_frac 0.1185864516660000 0.7500000000000000 0.4078396309680000 Sn
atom_frac 0.8814135483340000 0.2500000000000000 0.5921603690320000 Sn
atom_frac 0.3814135483340000 0.2500000000000000 0.9078396309679999 Sn
atom_frac 0.6185864516660000 0.7500000000000000 0.0921603690320000 Sn
