#=======================================================
# FHI-aims file: eos/009/geometry.in
# Created using the Atomic Simulation Environment (ASE)
# Mon Apr 17 17:07:11 2023
#=======================================================
lattice_vector 11.5544369750679543 -0.0000000000000000 0.0000000000000000 
lattice_vector 0.0000000000000000 4.1779354207117496 0.0000000000000000 
lattice_vector 0.0000000000000000 0.0000000000000000 4.3748997059910240 
atom 9.9172685434671628 3.1334515655338118 0.1438250234755949 Se
atom 1.6371684316007902 1.0444838551779374 4.2310746825154322 Se
atom 7.4143869191347660 1.0444838551779374 2.3312748764711042 Se
atom 4.1400500559331856 3.1334515655338118 2.0436248295199202 Se
atom 1.3858610936237541 3.1334515655338118 1.7411070688135182 Sn
atom 10.1685758814442178 1.0444838551779374 2.6337926371775069 Sn
atom 4.3913573939102220 1.0444838551779374 3.9285569218090304 Sn
atom 7.1630795811577297 3.1334515655338118 0.4463427841819984 Sn
