#=======================================================
# FHI-aims file: /cfs/klemming/projects/snic/snic2021-1-10/dardel-test/flokno/projects/so3krates/dev_SnSe/test_10_EOS_easy/finer/dft_01/eos/001/relaxation/geometry.in.next_step
# Created using the Atomic Simulation Environment (ASE)
# Mon Apr 17 17:20:40 2023

# Additional information:
#  Relaxed with BFGS, fmax=0.100 meV/AA
#  nsteps = 22
#  residual force  = 0.011102 meV/AA
#=======================================================
lattice_vector 11.4619089512440002 -0.0000000000000000 0.0000000000000000 
lattice_vector 0.0000000000000000 4.1444784804059998 0.0000000000000000 
lattice_vector 0.0000000000000000 0.0000000000000000 4.3398654741109999 
atom_frac 0.8587195157740000 0.7500000226030000 0.0328507014580000 Se
atom_frac 0.1412804137540000 0.2500000386740001 0.9671491583350001 Se
atom_frac 0.6412804065700000 0.2499997660540000 0.5328507748670001 Se
atom_frac 0.3587195052940000 0.7500000404970000 0.4671492671240000 Se
atom_frac 0.1184891067920000 0.7500000343420001 0.4036263053020000 Sn
atom_frac 0.8815109393610000 0.2500000504480000 0.5963736925890000 Sn
atom_frac 0.3815110106270000 0.2500000962410000 0.9036262956070000 Sn
atom_frac 0.6184891018270000 0.7499999511410000 0.0963738047200000 Sn
