#=======================================================
# FHI-aims file: /Users/flokno/working/projects/so3krates/dev_SnSe/test_10_EOS_easy/finer/so3krates_L3/eos/008/relaxation/geometry.in.next_step
# Created using the Atomic Simulation Environment (ASE)
# Mon Apr 17 17:22:12 2023

# Additional information:
#  Relaxed with BFGS, fmax=0.100 meV/AA
#  nsteps = 20
#  residual force  = 0.016509 meV/AA
#=======================================================
lattice_vector 11.5428709720900002 -0.0000000000000000 0.0000000000000000 
lattice_vector 0.0000000000000000 4.1737533031740002 0.0000000000000000 
lattice_vector 0.0000000000000000 0.0000000000000000 4.3705204270060003 
atom_frac 0.8585215615450001 0.7500000000000001 0.0330611305100000 Se
atom_frac 0.1414784384550000 0.2500000000000000 0.9669388694900000 Se
atom_frac 0.6414784384550001 0.2500000000000000 0.5330611305100000 Se
atom_frac 0.3585215615450000 0.7500000000000001 0.4669388694900000 Se
atom_frac 0.1196755030450000 0.7500000000000001 0.3990599908310000 Sn
atom_frac 0.8803244969550001 0.2500000000000000 0.6009400091690000 Sn
atom_frac 0.3803244969550000 0.2500000000000000 0.8990599908310000 Sn
atom_frac 0.6196755030450000 0.7500000000000001 0.1009400091690000 Sn
