#=======================================================
# FHI-aims file: /Users/flokno/working/projects/so3krates/dev_SnSe/test_10_EOS_easy/so3krates_L1/eos/008/relaxation/geometry.in.next_step
# Created using the Atomic Simulation Environment (ASE)
# Fri Apr 14 11:25:45 2023

# Additional information:
#  Relaxed with BFGS, fmax=0.100 meV/AA
#  nsteps = 23
#  residual force  = 0.021490 meV/AA
#=======================================================
lattice_vector 11.7047950137830004 -0.0000000000000000 0.0000000000000000 
lattice_vector 0.0000000000000000 4.2323029487090000 0.0000000000000000 
lattice_vector 0.0000000000000000 0.0000000000000000 4.4318303327960002 
atom_frac 0.8585431377200000 0.7500000000000000 0.0403206498540000 Se
atom_frac 0.1414568622800000 0.2500000000000000 0.9596793501459999 Se
atom_frac 0.6414568622800000 0.2500000000000000 0.5403206498540000 Se
atom_frac 0.3585431377200001 0.7500000000000000 0.4596793501460000 Se
atom_frac 0.1230939755350000 0.7500000000000000 0.3836576770250000 Sn
atom_frac 0.8769060244649999 0.2500000000000000 0.6163423229750000 Sn
atom_frac 0.3769060244650000 0.2500000000000000 0.8836576770250000 Sn
atom_frac 0.6230939755350000 0.7500000000000000 0.1163423229750000 Sn
