#=======================================================
# FHI-aims file: /Users/flokno/working/projects/so3krates/dev_SnSe/test_10_EOS_easy/so3krates_L3/eos/002/relaxation/geometry.in.next_step
# Created using the Atomic Simulation Environment (ASE)
# Thu Apr 13 17:23:57 2023

# Additional information:
#  Relaxed with BFGS, fmax=0.100 meV/AA
#  nsteps = 22
#  residual force  = 0.051120 meV/AA
#=======================================================
lattice_vector 11.4272109423089994 -0.0000000000000000 0.0000000000000000 
lattice_vector 0.0000000000000000 4.1319321277909999 0.0000000000000000 
lattice_vector 0.0000000000000000 0.0000000000000000 4.3267276371560000 
atom_frac 0.8593046658270000 0.7500000000000000 0.0319888550170000 Se
atom_frac 0.1406953341730000 0.2500000000000000 0.9680111449830000 Se
atom_frac 0.6406953341730001 0.2500000000000000 0.5319888550170000 Se
atom_frac 0.3593046658270000 0.7500000000000000 0.4680111449830000 Se
atom_frac 0.1186072311920000 0.7500000000000000 0.4087083059150001 Sn
atom_frac 0.8813927688080000 0.2500000000000000 0.5912916940850000 Sn
atom_frac 0.3813927688080000 0.2500000000000000 0.9087083059150000 Sn
atom_frac 0.6186072311920000 0.7500000000000000 0.0912916940850000 Sn
