#=======================================================
# FHI-aims file: /Users/flokno/working/projects/so3krates/dev_SnSe/test_10_EOS_easy/finer/so3krates_L2/eos/004/relaxation/geometry.in.next_step
# Created using the Atomic Simulation Environment (ASE)
# Mon Apr 17 17:13:49 2023

# Additional information:
#  Relaxed with BFGS, fmax=0.100 meV/AA
#  nsteps = 21
#  residual force  = 0.071559 meV/AA
#=======================================================
lattice_vector 11.4966069601779992 -0.0000000000000000 0.0000000000000000 
lattice_vector 0.0000000000000000 4.1570248330209996 0.0000000000000000 
lattice_vector 0.0000000000000000 0.0000000000000000 4.3530033110659998 
atom_frac 0.8586513108999999 0.7500000000000000 0.0313710415550000 Se
atom_frac 0.1413486891000000 0.2500000000000000 0.9686289584450000 Se
atom_frac 0.6413486891000000 0.2500000000000000 0.5313710415550000 Se
atom_frac 0.3586513109000000 0.7500000000000000 0.4686289584450000 Se
atom_frac 0.1192047320010000 0.7500000000000000 0.4044687644730001 Sn
atom_frac 0.8807952679990000 0.2500000000000000 0.5955312355270000 Sn
atom_frac 0.3807952679989999 0.2500000000000000 0.9044687644730001 Sn
atom_frac 0.6192047320010000 0.7500000000000000 0.0955312355270000 Sn
