#=======================================================
# FHI-aims file: /Users/flokno/working/projects/so3krates/dev_SnSe/test_10_EOS_easy/finer/so3krates_L2/eos/009/relaxation/geometry.in.next_step
# Created using the Atomic Simulation Environment (ASE)
# Mon Apr 17 17:15:13 2023

# Additional information:
#  Relaxed with BFGS, fmax=0.100 meV/AA
#  nsteps = 19
#  residual force  = 0.010566 meV/AA
#=======================================================
lattice_vector 11.5544369750680005 -0.0000000000000000 0.0000000000000000 
lattice_vector 0.0000000000000000 4.1779354207120001 0.0000000000000000 
lattice_vector 0.0000000000000000 0.0000000000000000 4.3748997059910000 
atom_frac 0.8584920520690000 0.7500000000000000 0.0319985900570000 Se
atom_frac 0.1415079479310000 0.2500000000000000 0.9680014099430000 Se
atom_frac 0.6415079479310000 0.2500000000000000 0.5319985900570000 Se
atom_frac 0.3584920520690000 0.7500000000000000 0.4680014099430000 Se
atom_frac 0.1200454592850000 0.7500000000000000 0.4004016424320000 Sn
atom_frac 0.8799545407150000 0.2500000000000000 0.5995983575680000 Sn
atom_frac 0.3799545407150001 0.2500000000000000 0.9004016424319999 Sn
atom_frac 0.6200454592850000 0.7500000000000000 0.0995983575680000 Sn
