#=======================================================
# FHI-aims file: eos/012/geometry.in
# Created using the Atomic Simulation Environment (ASE)
# Mon Apr 17 17:11:54 2023
#=======================================================
lattice_vector 11.5891349840020936 -0.0000000000000000 0.0000000000000000 
lattice_vector 0.0000000000000000 4.1904817733264998 0.0000000000000000 
lattice_vector 0.0000000000000000 0.0000000000000000 4.3880375429459519 
atom 9.9470501306847829 3.1428613299948749 0.1442569304529991 Se
atom 1.6420848533173091 1.0476204433316250 4.2437806124929560 Se
atom 7.4366523453183548 1.0476204433316250 2.3382757019259723 Se
atom 4.1524826386837361 3.1428613299948749 2.0497618410199800 Se
atom 1.3900228386496514 3.1428613299948749 1.7463356185697148 Sn
atom 10.1991121453524602 1.0476204433316250 2.6417019243762376 Sn
atom 4.4045446533513948 1.0476204433316250 3.9403543900426907 Sn
atom 7.1845903306506962 3.1428613299948749 0.4476831529032657 Sn
