#=======================================================
# FHI-aims file: /Users/flokno/working/projects/so3krates/dev_SnSe/test_10_EOS_easy/finer/so3krates_L2/eos/015/relaxation/geometry.in.next_step
# Created using the Atomic Simulation Environment (ASE)
# Mon Apr 17 17:16:46 2023

# Additional information:
#  Relaxed with BFGS, fmax=0.100 meV/AA
#  nsteps = 21
#  residual force  = 0.022858 meV/AA
#=======================================================
lattice_vector 11.6238329929360003 -0.0000000000000000 0.0000000000000000 
lattice_vector 0.0000000000000000 4.2030281259409996 0.0000000000000000 
lattice_vector 0.0000000000000000 0.0000000000000000 4.4011753799009998 
atom_frac 0.8583057174350001 0.7500000000000000 0.0328409569940000 Se
atom_frac 0.1416942825650000 0.2500000000000000 0.9671590430059999 Se
atom_frac 0.6416942825650001 0.2500000000000000 0.5328409569940000 Se
atom_frac 0.3583057174360000 0.7500000000000000 0.4671590430060000 Se
atom_frac 0.1211286819410000 0.7500000000000000 0.3957399337300000 Sn
atom_frac 0.8788713180590001 0.2500000000000000 0.6042600662699998 Sn
atom_frac 0.3788713180590000 0.2500000000000000 0.8957399337300000 Sn
atom_frac 0.6211286819410000 0.7500000000000000 0.1042600662700000 Sn
