#=======================================================
# FHI-aims file: /Users/flokno/working/projects/so3krates/dev_SnSe/test_10_EOS_easy/so3krates_L1/eos/002/relaxation/geometry.in.next_step
# Created using the Atomic Simulation Environment (ASE)
# Fri Apr 14 11:24:38 2023

# Additional information:
#  Relaxed with BFGS, fmax=0.100 meV/AA
#  nsteps = 22
#  residual force  = 0.060585 meV/AA
#=======================================================
lattice_vector 11.4272109423089994 -0.0000000000000000 0.0000000000000000 
lattice_vector 0.0000000000000000 4.1319321277909999 0.0000000000000000 
lattice_vector 0.0000000000000000 0.0000000000000000 4.3267276371560000 
atom_frac 0.8589512310770000 0.7500000000000000 0.0260778158510000 Se
atom_frac 0.1410487689230000 0.2500000000000000 0.9739221841490000 Se
atom_frac 0.6410487689230001 0.2500000000000000 0.5260778158510000 Se
atom_frac 0.3589512310770000 0.7500000000000000 0.4739221841490001 Se
atom_frac 0.1183995905050000 0.7500000000000000 0.4156432709260001 Sn
atom_frac 0.8816004094950000 0.2500000000000000 0.5843567290740000 Sn
atom_frac 0.3816004094950000 0.2500000000000000 0.9156432709260000 Sn
atom_frac 0.6183995905050002 0.7500000000000000 0.0843567290740000 Sn
