#=======================================================
# FHI-aims file: /Users/flokno/working/projects/so3krates/dev_SnSe/test_10_EOS_easy/so3krates_L2/eos/005/relaxation/geometry.in.next_step
# Created using the Atomic Simulation Environment (ASE)
# Thu Apr 13 17:19:28 2023

# Additional information:
#  Relaxed with BFGS, fmax=0.100 meV/AA
#  nsteps = 18
#  residual force  = 0.037782 meV/AA
#=======================================================
lattice_vector 11.5660029780460007 -0.0000000000000000 0.0000000000000000 
lattice_vector 0.0000000000000000 4.1821175382500000 0.0000000000000000 
lattice_vector 0.0000000000000000 0.0000000000000000 4.3792789849759997 
atom_frac 0.8584634694520000 0.7499999999999999 0.0321399783510000 Se
atom_frac 0.1415365305480000 0.2500000000000000 0.9678600216489999 Se
atom_frac 0.6415365305480000 0.2500000000000000 0.5321399783510000 Se
atom_frac 0.3584634694520000 0.7499999999999999 0.4678600216490000 Se
atom_frac 0.1202217708870000 0.7499999999999999 0.3996042844610000 Sn
atom_frac 0.8797782291129999 0.2500000000000000 0.6003957155390001 Sn
atom_frac 0.3797782291130000 0.2500000000000000 0.8996042844610000 Sn
atom_frac 0.6202217708870000 0.7499999999999999 0.1003957155390000 Sn
