#=======================================================
# FHI-aims file: /Users/flokno/working/projects/so3krates/dev_SnSe/test_10_EOS_easy/so3krates_L3/eos/008/relaxation/geometry.in.next_step
# Created using the Atomic Simulation Environment (ASE)
# Thu Apr 13 17:26:08 2023

# Additional information:
#  Relaxed with BFGS, fmax=0.100 meV/AA
#  nsteps = 22
#  residual force  = 0.075971 meV/AA
#=======================================================
lattice_vector 11.7047950137830004 -0.0000000000000000 0.0000000000000000 
lattice_vector 0.0000000000000000 4.2323029487090000 0.0000000000000000 
lattice_vector 0.0000000000000000 0.0000000000000000 4.4318303327960002 
atom_frac 0.8577039714490000 0.7500000000000000 0.0329439867600000 Se
atom_frac 0.1422960285510000 0.2500000000000000 0.9670560132400000 Se
atom_frac 0.6422960285510000 0.2500000000000000 0.5329439867600000 Se
atom_frac 0.3577039714490000 0.7500000000000000 0.4670560132400000 Se
atom_frac 0.1221284861780000 0.7500000000000000 0.3897609287910000 Sn
atom_frac 0.8778715138219999 0.2500000000000000 0.6102390712090000 Sn
atom_frac 0.3778715138220000 0.2500000000000000 0.8897609287909999 Sn
atom_frac 0.6221284861780000 0.7500000000000000 0.1102390712090000 Sn
