#=======================================================
# FHI-aims file: /Users/flokno/working/projects/so3krates/dev_SnSe/test_10_EOS_easy/finer/so3krates_L2/eos/012/relaxation/geometry.in.next_step
# Created using the Atomic Simulation Environment (ASE)
# Mon Apr 17 17:15:59 2023

# Additional information:
#  Relaxed with BFGS, fmax=0.100 meV/AA
#  nsteps = 18
#  residual force  = 0.007013 meV/AA
#=======================================================
lattice_vector 11.5891349840019995 -0.0000000000000000 0.0000000000000000 
lattice_vector 0.0000000000000000 4.1904817733259998 0.0000000000000000 
lattice_vector 0.0000000000000000 0.0000000000000000 4.3880375429459999 
atom_frac 0.8584026818089999 0.7500000000000000 0.0324103327660000 Se
atom_frac 0.1415973181910000 0.2500000000000000 0.9675896672340001 Se
atom_frac 0.6415973181909999 0.2500000000000000 0.5324103327660000 Se
atom_frac 0.3584026818090000 0.7500000000000000 0.4675896672340000 Se
atom_frac 0.1205800707150000 0.7500000000000000 0.3980430931989999 Sn
atom_frac 0.8794199292849999 0.2500000000000000 0.6019569068010000 Sn
atom_frac 0.3794199292850000 0.2500000000000000 0.8980430931990000 Sn
atom_frac 0.6205800707150000 0.7500000000000000 0.1019569068010000 Sn
