#=======================================================
# FHI-aims file: eos/015/geometry.in
# Created using the Atomic Simulation Environment (ASE)
# Mon Apr 17 17:07:00 2023
#=======================================================
lattice_vector 11.6238329929362294 -0.0000000000000000 0.0000000000000000 
lattice_vector 0.0000000000000000 4.2030281259412492 0.0000000000000000 
lattice_vector 0.0000000000000000 0.0000000000000000 4.4011753799008790 
atom 9.9768317179024013 3.1522710944559362 0.1446888374304033 Se
atom 1.6470012750338279 1.0507570314853121 4.2564865424704790 Se
atom 7.4589177715019419 1.0507570314853121 2.3452765273808400 Se
atom 4.1649152214342857 3.1522710944559362 2.0558988525200395 Se
atom 1.3941845836755484 3.1522710944559362 1.7515641683259111 Sn
atom 10.2296484092606992 1.0507570314853121 2.6496112115749688 Sn
atom 4.4177319127925658 1.0507570314853121 3.9521518582763511 Sn
atom 7.2061010801436618 3.1522710944559362 0.4490235216245329 Sn
