#=======================================================
# FHI-aims file: /Users/flokno/working/projects/so3krates/dev_SnSe/test_10_EOS_easy/finer/so3krates_L1/eos/016/relaxation/geometry.in.next_step
# Created using the Atomic Simulation Environment (ASE)
# Mon Apr 17 17:10:24 2023

# Additional information:
#  Relaxed with BFGS, fmax=0.100 meV/AA
#  nsteps = 21
#  residual force  = 0.018619 meV/AA
#=======================================================
lattice_vector 11.6353989959140005 -0.0000000000000000 0.0000000000000000 
lattice_vector 0.0000000000000000 4.2072102434790004 0.0000000000000000 
lattice_vector 0.0000000000000000 0.0000000000000000 4.4055546588860004 
atom_frac 0.8585965462699999 0.7500000000000000 0.0366585082900000 Se
atom_frac 0.1414034537300000 0.2500000000000000 0.9633414917100001 Se
atom_frac 0.6414034537300000 0.2500000000000000 0.5366585082899999 Se
atom_frac 0.3585965462700000 0.7500000000000000 0.4633414917099999 Se
atom_frac 0.1217417028490000 0.7500000000000000 0.3913432848590000 Sn
atom_frac 0.8782582971510000 0.2500000000000000 0.6086567151409999 Sn
atom_frac 0.3782582971510000 0.2500000000000000 0.8913432848590001 Sn
atom_frac 0.6217417028490000 0.7500000000000000 0.1086567151410000 Sn
