#=======================================================
# FHI-aims file: /Users/flokno/working/projects/so3krates/dev_SnSe/test_10_EOS_easy/so3krates_L3/eos/006/relaxation/geometry.in.next_step
# Created using the Atomic Simulation Environment (ASE)
# Thu Apr 13 17:25:23 2023

# Additional information:
#  Relaxed with BFGS, fmax=0.100 meV/AA
#  nsteps = 20
#  residual force  = 0.052413 meV/AA
#=======================================================
lattice_vector 11.6122669899580000 -0.0000000000000000 0.0000000000000000 
lattice_vector 0.0000000000000000 4.1988460084029997 0.0000000000000000 
lattice_vector 0.0000000000000000 0.0000000000000000 4.3967961009160001 
atom_frac 0.8581435355880001 0.7500000000000000 0.0332255708910000 Se
atom_frac 0.1418564644120000 0.2500000000000000 0.9667744291089999 Se
atom_frac 0.6418564644119999 0.2500000000000000 0.5332255708909999 Se
atom_frac 0.3581435355879999 0.7500000000000000 0.4667744291090000 Se
atom_frac 0.1205926645120000 0.7500000000000000 0.3944857959570000 Sn
atom_frac 0.8794073354880000 0.2500000000000000 0.6055142040430000 Sn
atom_frac 0.3794073354879999 0.2500000000000000 0.8944857959569998 Sn
atom_frac 0.6205926645120000 0.7500000000000000 0.1055142040430000 Sn
