#=======================================================
# FHI-aims file: eos/006/geometry.in
# Created using the Atomic Simulation Environment (ASE)
# Fri Apr 14 09:34:59 2023
#=======================================================
lattice_vector 11.6122669899581847 -0.0000000000000000 0.0000000000000000 
lattice_vector 0.0000000000000000 4.1988460084029997 0.0000000000000000 
lattice_vector 0.0000000000000000 0.0000000000000000 4.3967961009159033 
atom 9.9669045221631958 3.1491345063022496 0.1445448684379352 Se
atom 1.6453624677949885 1.0497115021007499 4.2522512324779713 Se
atom 7.4514959627740796 1.0497115021007499 2.3429429188958841 Se
atom 4.1607710271841034 3.1491345063022496 2.0538531820200197 Se
atom 1.3927973353335830 3.1491345063022496 1.7498213184071791 Sn
atom 10.2194696546246195 1.0497115021007499 2.6469747825087251 Sn
atom 4.4133361596455094 1.0497115021007499 3.9482193688651313 Sn
atom 7.1989308303126736 3.1491345063022496 0.4485767320507771 Sn
