#=======================================================
# FHI-aims file: /Users/flokno/working/projects/so3krates/dev_SnSe/test_10_EOS_easy/finer/so3krates_L3/eos/007/relaxation/geometry.in.next_step
# Created using the Atomic Simulation Environment (ASE)
# Mon Apr 17 17:21:51 2023

# Additional information:
#  Relaxed with BFGS, fmax=0.100 meV/AA
#  nsteps = 20
#  residual force  = 0.039458 meV/AA
#=======================================================
lattice_vector 11.5313049691120000 -0.0000000000000000 0.0000000000000000 
lattice_vector 0.0000000000000000 4.1695711856350002 0.0000000000000000 
lattice_vector 0.0000000000000000 0.0000000000000000 4.3661411480209997 
atom_frac 0.8585896542860000 0.7500000000000000 0.0330053394620000 Se
atom_frac 0.1414103457140000 0.2500000000000000 0.9669946605380000 Se
atom_frac 0.6414103457140000 0.2500000000000000 0.5330053394620000 Se
atom_frac 0.3585896542860000 0.7500000000000000 0.4669946605380000 Se
atom_frac 0.1195427383760000 0.7500000000000000 0.3999076040240000 Sn
atom_frac 0.8804572616240000 0.2500000000000000 0.6000923959759999 Sn
atom_frac 0.3804572616240000 0.2500000000000000 0.8999076040240002 Sn
atom_frac 0.6195427383760000 0.7500000000000000 0.1000923959760000 Sn
