#=======================================================
# FHI-aims file: /cfs/klemming/projects/snic/snic2021-1-10/dardel-test/flokno/projects/so3krates/dev_SnSe/test_10_EOS_easy/finer/dft_01/eos/015/relaxation/geometry.in.next_step
# Created using the Atomic Simulation Environment (ASE)
# Mon Apr 17 17:29:07 2023

# Additional information:
#  Relaxed with BFGS, fmax=0.100 meV/AA
#  nsteps = 21
#  residual force  = 0.042798 meV/AA
#=======================================================
lattice_vector 11.6238329929360003 -0.0000000000000000 0.0000000000000000 
lattice_vector 0.0000000000000000 4.2030281259409996 0.0000000000000000 
lattice_vector 0.0000000000000000 0.0000000000000000 4.4011753799009998 
atom_frac 0.8580706334610000 0.7499996560530000 0.0322068569610000 Se
atom_frac 0.1419292302360000 0.2500000605150000 0.9677928026319998 Se
atom_frac 0.6419296835900000 0.2499998511620000 0.5322073300230000 Se
atom_frac 0.3580702555770000 0.7500000114110000 0.4677927208010000 Se
atom_frac 0.1208568569460000 0.7500001270379999 0.3956915327080000 Sn
atom_frac 0.8791431208000000 0.2500000693230000 0.6043086910220000 Sn
atom_frac 0.3791433050260000 0.2500000792210000 0.8956916428030000 Sn
atom_frac 0.6208569143640000 0.7500001452759999 0.1043084230500000 Sn
