#=======================================================
# FHI-aims file: /cfs/klemming/projects/snic/snic2021-1-10/dardel-test/flokno/projects/so3krates/dev_SnSe/test_10_EOS_easy/dft_01/eos/009/relaxation/geometry.in.next_step
# Created using the Atomic Simulation Environment (ASE)
# Fri Apr 14 09:42:40 2023

# Additional information:
#  Relaxed with BFGS, fmax=0.100 meV/AA
#  nsteps = 22
#  residual force  = 0.024299 meV/AA
#=======================================================
lattice_vector 11.7510590256949996 -0.0000000000000000 0.0000000000000000 
lattice_vector 0.0000000000000000 4.2490314188619998 0.0000000000000000 
lattice_vector 0.0000000000000000 0.0000000000000000 4.4493474487359999 
atom_frac 0.8574938499230000 0.7500000885280000 0.0308358771180000 Se
atom_frac 0.1425061157790000 0.2500000690030000 0.9691639225720000 Se
atom_frac 0.6425062551400000 0.2499999948310000 0.5308358802660000 Se
atom_frac 0.3574936474010000 0.7499998819180000 0.4691639098729999 Se
atom_frac 0.1230178855770000 0.7500000331230000 0.3905344183040000 Sn
atom_frac 0.8769822677279999 0.2500000112220000 0.6094658858710000 Sn
atom_frac 0.3769823471410000 0.2500000801050000 0.8905343317829999 Sn
atom_frac 0.6230176313110000 0.7499998412700000 0.1094657742140000 Sn
