#=======================================================
# FHI-aims file: /Users/flokno/working/projects/so3krates/dev_SnSe/test_10_EOS_easy/finer/so3krates_L1/eos/002/relaxation/geometry.in.next_step
# Created using the Atomic Simulation Environment (ASE)
# Mon Apr 17 17:07:56 2023

# Additional information:
#  Relaxed with BFGS, fmax=0.100 meV/AA
#  nsteps = 22
#  residual force  = 0.026941 meV/AA
#=======================================================
lattice_vector 11.4734749542220005 -0.0000000000000000 0.0000000000000000 
lattice_vector 0.0000000000000000 4.1486605979439997 0.0000000000000000 
lattice_vector 0.0000000000000000 0.0000000000000000 4.3442447530959996 
atom_frac 0.8587983352270000 0.7500000000000000 0.0277660043050000 Se
atom_frac 0.1412016647730000 0.2500000000000000 0.9722339956950000 Se
atom_frac 0.6412016647730000 0.2500000000000000 0.5277660043050000 Se
atom_frac 0.3587983352269999 0.7500000000000000 0.4722339956950000 Se
atom_frac 0.1190023312010000 0.7500000000000000 0.4107118690200000 Sn
atom_frac 0.8809976687990000 0.2500000000000000 0.5892881309800000 Sn
atom_frac 0.3809976687989999 0.2500000000000000 0.9107118690199999 Sn
atom_frac 0.6190023312010000 0.7500000000000000 0.0892881309800000 Sn
