#=======================================================
# FHI-aims file: eos/003/geometry.in
# Created using the Atomic Simulation Environment (ASE)
# Thu Apr 13 17:22:43 2023
#=======================================================
lattice_vector 11.4734749542216328 -0.0000000000000000 0.0000000000000000 
lattice_vector 0.0000000000000000 4.1486605979439997 0.0000000000000000 
lattice_vector 0.0000000000000000 0.0000000000000000 4.3442447530961914 
atom 9.8477781732927188 3.1114954484579993 0.1428172405283185 Se
atom 1.6256967809289129 1.0371651494859999 4.2014275125678759 Se
atom 7.3624342580397277 1.0371651494859999 2.3149396170764116 Se
atom 4.1110406961819024 3.1114954484579993 2.0293051360197802 Se
atom 1.3761503552299943 3.1114954484579993 1.7289071193823922 Sn
atom 10.0973245989916567 1.0371651494859999 2.6153376337138003 Sn
atom 4.3605871218808216 1.0371651494859999 3.9010294959304881 Sn
atom 7.1128878323408093 3.1114954484579993 0.4432152571657081 Sn
