#=======================================================
# FHI-aims file: geometry.in
# Created using the Atomic Simulation Environment (ASE)
# Fri Feb 10 16:29:41 2023

# Additional information:
# extracted from nve.1
#=======================================================
lattice_vector 23.2690517097740006 0.0000000000000000 0.0000000000000000 
lattice_vector 0.0000000000000000 16.7826781019280986 0.0000000000000000 
lattice_vector 0.0000000000000000 0.0000000000000000 17.6168860998680010 
atom_frac 0.4272411415073152 0.1911140915078055 0.0055823252381685 Se
    velocity -0.7323258207766709 1.0732027904418426 -0.8375865510528560
atom_frac 0.9290247701527566 0.1857031263476218 0.0072830507131432 Se
    velocity 1.1688870846759150 1.7527083930440168 1.3873324072738755
atom_frac 0.4427948027865709 0.4404187874788196 0.0111211629018659 Se
    velocity -0.7766881069911182 2.7287540450016454 -1.3874012421288755
atom_frac 0.9318143196459160 0.4411234654756609 0.0035755677454818 Se
    velocity -1.7389701211425574 -1.6907014754660046 1.1236918452854612
atom_frac 0.4250156830376335 0.6996964524107696 0.0022188434762409 Se
    velocity -0.1174509238646809 -1.5952212998474142 1.1194086063596538
atom_frac 0.9259507588494745 0.6857275647385532 0.0213294009711959 Se
    velocity 1.3835372478409249 0.8750182719563964 -1.2122380556561072
atom_frac 0.4293365309482446 0.9361964952813652 0.0175189315680592 Se
    velocity 2.2237615268516149 0.1864140523506649 1.9905176323435043
atom_frac 0.9214636877995510 0.9304560794535700 0.0224758610208700 Se
    velocity 1.3127946949386808 -0.9925955342975455 -0.4348004401898395
atom_frac 0.4331585265189689 0.2046627615448603 0.2526140354405927 Se
    velocity 0.0690440239683005 -1.4945339236037025 0.2563133909206601
atom_frac 0.9297712420799347 0.1774933502917461 0.2567583393833114 Se
    velocity -1.0535725562699783 -1.0282854921368516 -1.6053867003536586
atom_frac 0.4369647935579861 0.4503736839008653 0.2692567955632495 Se
    velocity -3.3948776708302804 1.7793672722209057 0.0878294217607782
atom_frac 0.9286415338492482 0.4332199154859187 0.2643368123459867 Se
    velocity -1.7032283996320132 -2.3905961431270675 0.4549378073987245
atom_frac 0.4299936009219036 0.6982834308690126 0.2695044655296071 Se
    velocity 1.3953294235768534 2.0034252673575583 0.5557652696660375
atom_frac 0.9332779011132044 0.6771160892368694 0.2558300935913788 Se
    velocity -0.1489752172504204 -2.4736904267148772 -0.0897335162906181
atom_frac 0.4206470714837319 0.9379222758290819 0.2557943155231449 Se
    velocity -1.7239868529037541 0.6746937433880891 1.8050131436826555
atom_frac 0.9251100014381537 0.9424406161242753 0.2667324601174147 Se
    velocity 0.1779580551591453 0.0830644333275497 2.6143446181612440
atom_frac 0.4289414436990479 0.1840533869901245 0.5115536135770172 Se
    velocity -0.3088849252018407 -0.5064852433881368 -0.5426997656903526
atom_frac 0.9272551360184226 0.1855688405423962 0.5055152817519991 Se
    velocity 1.5201232018228263 -1.4560127743047457 -0.0480801322567416
atom_frac 0.4316554494779389 0.4430331203756407 0.5264733720364687 Se
    velocity 0.4695323259152697 -0.0351462784900985 0.4627556956418747
atom_frac 0.9333555274193870 0.4447578403272499 0.4988768144000159 Se
    velocity 0.3908972267235976 -0.6173505715194691 0.3598416587447412
atom_frac 0.4276633304223936 0.6972348023140397 0.5047285630733666 Se
    velocity -0.4281470055473769 0.7981932754355119 -1.5256563277850557
atom_frac 0.9273865583822061 0.6835784309264916 0.5113420452240142 Se
    velocity -0.3207670887071744 -0.4165144213789773 -1.2192440387036267
atom_frac 0.4366543525976755 0.9330797842033883 0.5116099454798793 Se
    velocity 0.4275353470367125 0.2478935161404606 -2.7777662695997192
atom_frac 0.9346205114832642 0.9377421396252151 0.5089984201007957 Se
    velocity -0.0843149783988726 1.1695976864297448 -0.5768486585715389
atom_frac 0.4352216212729865 0.1775674985408588 0.7647125604181287 Se
    velocity 0.1426412992963446 0.8130382946228948 2.9399746567959886
atom_frac 0.9367671548565573 0.1861743695618935 0.7594209541009601 Se
    velocity -0.0648678572780279 0.7910489760233624 3.7366919520693300
atom_frac 0.4350790254498096 0.4349513985998749 0.7531909295130551 Se
    velocity 1.3563722002253107 -4.3712198016706578 -0.9410001336608432
atom_frac 0.9347989545035681 0.4282382148495510 0.7475169467275702 Se
    velocity -0.1338333618941496 0.5912990744111662 1.3576862890929200
atom_frac 0.4257695174242098 0.7020005674520369 0.7649818752241168 Se
    velocity -0.7336589516267574 0.7038537902587962 0.3402039053437665
atom_frac 0.9225777894255494 0.6792224081808429 0.7665188521911985 Se
    velocity 1.8113397796115935 3.5044295133174508 0.6935438943360592
atom_frac 0.4287542888961657 0.9341573024188048 0.7621168198808357 Se
    velocity -1.0255075050725817 -1.8851432435046729 1.1776274060547240
atom_frac 0.9199303554185579 0.9285036263625204 0.7587143975063475 Se
    velocity -1.4524537763669860 1.4318243524766463 0.3868338629702222
atom_frac 0.0737273324167886 0.0740459840855264 0.2377751219628931 Se
    velocity -0.1151854065724048 0.4131497834157162 2.3887044587825303
atom_frac 0.5786134611176583 0.0641362596015399 0.2498766093753478 Se
    velocity -3.1553769907493803 1.5273443388684724 1.3272661872815421
atom_frac 0.0771190503307747 0.3046304577424632 0.2438996062096011 Se
    velocity 0.2705636764958810 0.9641859354944746 2.8389626604941429
atom_frac 0.5745587494178915 0.3235784380402314 0.2378239498666857 Se
    velocity -0.6183970888624490 2.6946648023398545 -2.0185194934527089
atom_frac 0.0658772220095590 0.5612263084268524 0.2402861872496086 Se
    velocity -0.6582846979717685 0.7956777884616139 1.5326741206255545
atom_frac 0.5747710514550444 0.5760807779278426 0.2384711714257220 Se
    velocity 0.0908341309267297 -3.8004050282579218 -1.0058569076672597
atom_frac 0.0732520689037488 0.8147462029453386 0.2357964547268978 Se
    velocity -1.3329173582493359 -1.6117535201309845 -0.8347914905069689
atom_frac 0.5687529849366318 0.8256723866010528 0.2442281492983160 Se
    velocity 0.3691200979849216 1.0603238921755052 0.8631049830002958
atom_frac 0.0678825926839071 0.0421758954294803 0.4960818473947137 Se
    velocity 0.2515759656508719 -0.8764921337159780 3.1856197785980034
atom_frac 0.5661318649611546 0.0737008753626024 0.4903019899531409 Se
    velocity -2.2701534768771618 -0.9274319101436155 -2.5354323070901947
atom_frac 0.0660821982257830 0.3083268268530620 0.4839804235897724 Se
    velocity 0.2015739322047315 -1.1918648605597351 -1.6014819175495956
atom_frac 0.5701665589564869 0.3111355629149719 0.4972380227432920 Se
    velocity 0.1212859974392250 -0.4457763244328855 -0.9430415015648159
atom_frac 0.0679039254870187 0.5442946625359111 0.4976149979777547 Se
    velocity -0.1932620538247870 -1.1125740374389732 2.7297332898513238
atom_frac 0.5644263855195051 0.5659638144150853 0.4841890203886612 Se
    velocity -1.4045387845906809 -0.4029841247348619 -1.3104218809340542
atom_frac 0.0662835648878413 0.8133624165870855 0.4881501140218705 Se
    velocity -0.0637106100742610 -1.1518808650808887 1.4575101502021721
atom_frac 0.5683043525326773 0.8139388756078713 0.4863642744072421 Se
    velocity -0.3575365304619412 -0.1516387529026617 -0.9094369368468496
atom_frac 0.0631403297884127 0.0588173089203185 0.7422031386076720 Se
    velocity -0.5100199302134565 0.9857859565432390 -0.5915181871374889
atom_frac 0.5661689784383205 0.0713348214385950 0.7425238680360436 Se
    velocity 2.2189789421100392 2.7394984815247252 0.4198027930928017
atom_frac 0.0699959411100913 0.3142938075170804 0.7461699417482806 Se
    velocity -3.2260428062883011 0.3655854722814922 -0.0336431431757594
atom_frac 0.5705670311238071 0.3183465434982952 0.7483484257870850 Se
    velocity 0.7184400311304658 -1.0197444033995451 -1.5216424491730163
atom_frac 0.0690430799617774 0.5691677506852811 0.7408986798904148 Se
    velocity 1.7225100372328590 1.1734646376202573 0.6329278016718120
atom_frac 0.5656192126175704 0.5689085816410104 0.7431053293260089 Se
    velocity 2.0287345927522984 -1.3978747602264481 -3.4313220280678167
atom_frac 0.0629832143665138 0.8052952742467432 0.7465867436573906 Se
    velocity -0.0971049027051795 -1.9031647237285776 -1.8547127120180376
atom_frac 0.5685654174796879 0.8164709600122977 0.7481905128648564 Se
    velocity 0.0170145361910440 2.6093706506791112 2.0328693868151571
atom_frac 0.0824433146134111 0.0675630323406514 0.9942870671691488 Se
    velocity -1.7035859113153191 -0.2138102985946985 -4.8265404005980708
atom_frac 0.5680940329009002 0.0624665240270579 1.0041259858483187 Se
    velocity -2.2192609180583687 -0.4656929623246673 0.1521637320683707
atom_frac 0.0741548925046013 0.3189821529822753 0.9863809160809356 Se
    velocity -1.2359033245284270 1.7477881625526359 -3.1389956838061512
atom_frac 0.5726023947813130 0.3083209129037580 0.9921849966697615 Se
    velocity 0.1360377629865837 2.1544097640320889 1.5779629482306485
atom_frac 0.0733045217135897 0.5605536281900854 0.9795828898575444 Se
    velocity -1.3398597851043539 -2.1270407152500317 -0.1666069242021788
atom_frac 0.5626364127346491 0.5699952657614498 0.9867874656468009 Se
    velocity 1.0759176659050926 -1.1287764864038841 -1.5667919053607633
atom_frac 0.0737699152302207 0.8103307885819786 0.9985669600503525 Se
    velocity 2.2532971930826946 -2.3087992530726185 -0.0529414904048176
atom_frac 0.5780278054575493 0.8358449325033177 0.9928476683448532 Se
    velocity -0.2926032225966217 0.1758229343400897 0.2512158934235899
atom_frac 0.3271324522150448 0.0645970756403658 0.1421735325728618 Se
    velocity -1.9643201004434609 1.5313332504510919 -0.2976178244058705
atom_frac 0.8125720885883210 0.0670721872310045 0.1264549334731319 Se
    velocity 2.3939544518541047 0.0542655585244246 1.8634281845834704
atom_frac 0.3264006917027667 0.3172431236528164 0.1364762737643723 Se
    velocity -1.2162169107073317 1.0198346894018215 2.4465538457205551
atom_frac 0.8211502743535043 0.3130624906485827 0.1336338341366786 Se
    velocity 0.0652084546051782 0.7478902475178236 -0.4740017206880413
atom_frac 0.3241552462308757 0.5641402348002957 0.1310226327136783 Se
    velocity 0.6389308496946610 3.9761541608312951 1.2390974287702359
atom_frac 0.8213004604752934 0.5483471649214592 0.1317193745309835 Se
    velocity -0.8190314801210034 -2.5059294314236489 -1.3588560661984268
atom_frac 0.3103641203879186 0.8068095340687069 0.1336013921438912 Se
    velocity -1.8146771472085059 0.6938416588989048 1.4520821020643213
atom_frac 0.8167152666813201 0.8118872168797482 0.1380721318744160 Se
    velocity 2.5447025136739287 1.9808486909280514 0.9812483290249715
atom_frac 0.3271956933550111 0.0608846599497644 0.3832910666023012 Se
    velocity 2.4644586134966322 0.2684806865586081 -3.0193564750500101
atom_frac 0.8184632108604855 0.0626993292420242 0.3849148878496285 Se
    velocity -0.5250676847752870 -0.9436021625561988 2.1719670624060106
atom_frac 0.3247741238047633 0.3132006680298687 0.3878328781265432 Se
    velocity 0.8527003986443958 0.9378370786028541 0.5918320017509615
atom_frac 0.8210280665584266 0.3143104576985492 0.3704288500312105 Se
    velocity 1.8463281597036829 0.6656363994402581 1.3471050339690909
atom_frac 0.3167291586546847 0.5711434012822280 0.3918936947343021 Se
    velocity -1.1042443563837037 0.5557986917717442 1.3750952886089198
atom_frac 0.8255353256797748 0.5540010830070763 0.3848054379703927 Se
    velocity 0.9215976033806585 -2.1394370336948265 -1.7497545568369903
atom_frac 0.3147472790488579 0.8182045916348786 0.3904434453335399 Se
    velocity -2.3454964290624289 -0.9439025675970333 -0.2854912148036027
atom_frac 0.8162096919047787 0.8106372612215038 0.3960218340367453 Se
    velocity 0.1753247916248327 -0.9322195929039858 -0.3668021340832376
atom_frac 0.3263735718192519 0.0668285072658325 0.6348983350426672 Se
    velocity 1.3794581486681836 0.1226539158751761 0.6447438462749738
atom_frac 0.8301867871784372 0.0619036691520439 0.6435471083980980 Se
    velocity -0.8593330659708339 2.5749036849356175 1.4903457441695214
atom_frac 0.3178324344765870 0.3136911907240861 0.6307540182054227 Se
    velocity 1.0421389721121126 -3.0280442739476210 1.2146438093908349
atom_frac 0.8179903611159135 0.3084032780614948 0.6353137196982025 Se
    velocity 2.2276295677119688 -1.9410866893660597 -0.6661085061505728
atom_frac 0.3240798448108431 0.5648234480260885 0.6336594038044295 Se
    velocity -1.0700650639259288 1.3140514262741041 -2.9644410153895979
atom_frac 0.8177217758180316 0.5645676895970654 0.6278924908254121 Se
    velocity 0.3743959216622221 0.0559507668458850 -0.3243072750709746
atom_frac 0.3174584531244000 0.8193520802946764 0.6328165381281390 Se
    velocity 2.4433503590975381 -2.5371857362935963 -0.4437616800315893
atom_frac 0.8164786493434641 0.8065381484168795 0.6324404806646892 Se
    velocity 3.0858597255163862 -1.2854417164032188 -3.6833342680327199
atom_frac 0.3189501318693164 0.0687968317247879 0.8879099111713054 Se
    velocity 0.0979957198095756 0.1566673717010443 -1.9932917023778163
atom_frac 0.8171947390007190 0.0576542904067335 0.8877170900008190 Se
    velocity 2.1454001015028821 2.2069767096592598 -2.0374152316563636
atom_frac 0.3301941844792829 0.3165211809258223 0.8788944687578535 Se
    velocity -0.3483772453869096 3.4193422919535550 1.5796422759993896
atom_frac 0.8232916804681579 0.3076966825986712 0.8850760848985127 Se
    velocity -1.2848249732953603 -1.9800718395960586 0.6777414081502043
atom_frac 0.3264202175558800 0.5596939110437037 0.8821200680498150 Se
    velocity 0.4030407138414112 -0.1714799177974953 -1.2859539830606379
atom_frac 0.8220251837642067 0.5680577077187120 0.8986578179746829 Se
    velocity -3.3832797242173318 0.1484498000202356 0.6025254165047594
atom_frac 0.3232353539081795 0.8169701113915128 0.8875527917544211 Se
    velocity -0.7684631911137279 1.0020670901344124 -1.0113555056609620
atom_frac 0.8294639160291272 0.8119577474758612 0.8871147551159508 Se
    velocity -0.6992919526539543 2.7918536274901267 1.4943529375402673
atom_frac 0.1814687644109345 0.1850865314561843 0.1112395338018689 Se
    velocity 0.5900895576953320 2.3423854567347249 -0.5955545532135015
atom_frac 0.6843672431042771 0.1977469543345108 0.1166143694765616 Se
    velocity 2.1164765197247046 1.0763193444152757 -0.5784829982836939
atom_frac 0.1803546668743171 0.4372827175071340 0.1165311024627032 Se
    velocity 3.7489958983260752 1.0198216415791799 2.7291218249163416
atom_frac 0.6798807258484172 0.4360024042062491 0.1171954320026403 Se
    velocity 1.6802614107906981 0.5704832970642890 0.9245520235987560
atom_frac 0.1783622422093173 0.6846612771614862 0.1114795891631572 Se
    velocity 0.6302076041188762 0.9920853357272312 0.2625877734626475
atom_frac 0.6839436520224215 0.6957356775199337 0.1088823779008813 Se
    velocity -1.6678425912105570 -1.6727446299710473 1.4440797309355164
atom_frac 0.1833950191535969 0.9427233737792204 0.1244963494114669 Se
    velocity 3.0158597682237223 1.3899059369161242 0.0885757625237905
atom_frac 0.6895222445210997 0.9362463975943639 0.1196652283119669 Se
    velocity 0.7935118848383075 3.2468406514642316 1.7684399433362141
atom_frac 0.1775647995027697 0.1859530703534768 0.3687250341418294 Se
    velocity 1.0918387628782631 -1.5714587392207460 0.2829045549335309
atom_frac 0.6808287381924971 0.1850238133736794 0.3634854703412301 Se
    velocity -2.5396888529005830 0.9955348624938236 0.8686870412414297
atom_frac 0.1793195906987435 0.4229232020935397 0.3668415976599697 Se
    velocity -0.1173290094688777 -0.3941822904425178 1.8840973807681523
atom_frac 0.6694098322173219 0.4330023863499306 0.3792822339952561 Se
    velocity 1.9701102749578869 -2.5103447243797201 1.7865704121999308
atom_frac 0.1746763049000512 0.6812153650521516 0.3653049004350343 Se
    velocity -0.2298713566310329 2.2012016240925210 1.3085992777868580
atom_frac 0.6799254965309183 0.6877530258510973 0.3647563691580522 Se
    velocity -0.8796095594748522 -1.1216735758718688 -3.3316849187836226
atom_frac 0.1754145052648827 0.9327853363548753 0.3664387813569669 Se
    velocity -0.3858470659715375 0.5415566751299946 -2.0661057939018943
atom_frac 0.6747287713896738 0.9318424386013289 0.3694680081719799 Se
    velocity 2.6156238743129885 1.3990229464487116 -2.7338680201385785
atom_frac 0.1806497002083660 0.1809870873952280 0.6149309312057691 Se
    velocity -0.2191815835820567 -1.8825558544863230 3.2526072858591251
atom_frac 0.6803908386411750 0.1794166934095844 0.6197147020073372 Se
    velocity -0.7232722120842631 -0.1806971770265448 -0.5516798968559328
atom_frac 0.1699419910434208 0.4243936554259935 0.6216495174676958 Se
    velocity 1.7743320107789193 1.0014371004513192 0.4823268040568560
atom_frac 0.6775322394770003 0.4378846475653153 0.6216284564321986 Se
    velocity -0.7503578893563038 -0.6711997710684471 1.3836160922916749
atom_frac 0.1688625312770845 0.7002863746306484 0.6169798429484278 Se
    velocity 1.2687220707626441 0.9869297876479249 -0.4310732848877356
atom_frac 0.6712395131402283 0.6941072182643658 0.6190190090624704 Se
    velocity -0.6833031415601636 -2.0230315971765096 0.4955266386105281
atom_frac 0.1749835606399594 0.9311460177626810 0.6228612585193428 Se
    velocity -1.8210726779888846 1.5804449539062595 -2.1419909314218679
atom_frac 0.6778496009045224 0.9333052606761192 0.5998507966182616 Se
    velocity -0.4290185942966047 -1.5556537518091611 -0.0660274248779048
atom_frac 0.1857865214799799 0.1888694793291942 0.8623859647443559 Se
    velocity -2.2075803062671877 -1.7539912496858832 -1.6220319278376925
atom_frac 0.6847104430105220 0.1846207662380626 0.8597219492363229 Se
    velocity -1.8009164529038209 -1.9714506763173756 -0.3419399309023066
atom_frac 0.1765084556748136 0.4464153283327300 0.8608866273651923 Se
    velocity -2.1295709806005023 0.3140405589427830 -0.5256986685505428
atom_frac 0.6847512235419951 0.4471137782304626 0.8518636695087191 Se
    velocity -0.5869170447197648 -1.5028433442783422 0.0776548996047088
atom_frac 0.1804393553918330 0.6841368191840204 0.8706667145627812 Se
    velocity 0.6647968813223845 -1.0961454214338906 2.1490067236540806
atom_frac 0.6812730259641194 0.6920378354198239 0.8585111855018420 Se
    velocity 2.8913867621032883 3.6325903396399264 2.4624083190937482
atom_frac 0.1730040724226608 0.9386797579241380 0.8624805798660438 Se
    velocity -0.6105132165581285 0.4185741402790737 0.1475201062021519
atom_frac 0.6812526714356277 0.9529505828937347 0.8709510449551902 Se
    velocity 0.3325941198817731 -0.6641685266163769 -2.3373830316418749
atom_frac 0.0610651486495923 0.1929561625534683 0.0964769218877572 Sn
    velocity 0.4593428511900016 -0.2620687596831424 -0.6585273975616386
atom_frac 0.5652339259843538 0.1896760578949808 0.1084751146558976 Sn
    velocity -0.0691218969345719 1.1170354055706546 -0.7330304286636007
atom_frac 0.0582930943896572 0.4315888630510928 0.0960358190303766 Sn
    velocity -0.4451296259688521 -0.2671994286312179 2.0945940589651215
atom_frac 0.5637551466963373 0.4510865017305575 0.1016279927718352 Sn
    velocity 0.7883028500938845 0.0477817821591185 1.2174806721104661
atom_frac 0.0559073933364320 0.6698366679694457 0.0900642060995166 Sn
    velocity 0.4349405182641162 -1.4217459919228583 0.9787831499361248
atom_frac 0.5639952344516863 0.7061505133945560 0.0894165610045491 Sn
    velocity -1.1083050210964518 -0.0366386664981538 -0.0250361784678435
atom_frac 0.0640558502372719 0.9458065422147965 0.1047282160645225 Sn
    velocity 1.5248183732784077 1.4314426251452514 0.6751298747115242
atom_frac 0.5687311216120690 0.9458847733725549 0.1134346322425910 Sn
    velocity -0.8898164379085051 1.2025484683916083 0.2450894867194293
atom_frac 0.0604585593902311 0.1928609384472878 0.3535152147191888 Sn
    velocity 4.6128871334652146 0.1314694133971536 -0.9946442128110294
atom_frac 0.5600310975984962 0.1920132193222999 0.3446735925887269 Sn
    velocity 0.2183235373445030 0.9055685377872755 0.7148455268270708
atom_frac 0.0645100428196663 0.4364610890728977 0.3442150032795868 Sn
    velocity -0.5497193140968387 0.4306831920266716 -1.3782671374791962
atom_frac 0.5557975856858848 0.4529953527103371 0.3361432881488625 Sn
    velocity 0.4093577007793520 1.2726026720919996 0.3670595867378593
atom_frac 0.0579954628011017 0.6950860499093053 0.3384709115322445 Sn
    velocity 0.0014015863741870 1.2540375519478912 -1.6174731243856406
atom_frac 0.5669551111556892 0.6960201429546101 0.3430992933865542 Sn
    velocity 2.4152482610284256 0.4006966072926763 0.8685531791980118
atom_frac 0.0600845285084563 0.9420798084117086 0.3338716858198482 Sn
    velocity 0.5461550712471496 -2.3792686167447656 0.9754915746111888
atom_frac 0.5599636047558834 0.9381849313105390 0.3526194064915698 Sn
    velocity 0.6143534436179910 0.1463884166748319 2.4621095860033955
atom_frac 0.0595067464954243 0.1680027720006543 0.5870338500767106 Sn
    velocity 1.8112287629784023 -0.5896289075821626 1.7335012049211420
atom_frac 0.5591853246021892 0.1924114698665329 0.5999565022534142 Sn
    velocity 0.3496320199716035 2.0749357481555899 1.1120882778583161
atom_frac 0.0452035513526273 0.4241703534515768 0.6008530475754289 Sn
    velocity -1.8138096529983490 -2.3912120015283906 0.0560609721174746
atom_frac 0.5559641481517275 0.4542276530448722 0.6075982320325328 Sn
    velocity 1.0035034131989364 -1.9490674542152255 0.3853190576477114
atom_frac 0.0586547786204140 0.6759277854318760 0.5845752082259454 Sn
    velocity 0.1680516789937096 2.3135613120598508 -1.1237847258689353
atom_frac 0.5548600142950733 0.6868668612657806 0.5957367871319573 Sn
    velocity -0.7874395747038301 -0.2765455913613094 -4.6335670396704121
atom_frac 0.0534833083437158 0.9259102977193344 0.6084655998439428 Sn
    velocity -0.2457120646184414 -1.0163365468143961 1.4957836078193738
atom_frac 0.5534698789746119 0.9441644883332272 0.5925429245328557 Sn
    velocity 1.4917419956739209 0.5750850222669456 3.3282123719919974
atom_frac 0.0684965244057735 0.1908513728647587 0.8548343696622944 Sn
    velocity -0.3000039794798247 -0.1363761042708275 0.1906341345534184
atom_frac 0.5567911745862734 0.1919186047479259 0.8578024544903330 Sn
    velocity -0.1915203935845373 1.3149369365127206 0.5467635298579677
atom_frac 0.0494490469455425 0.4368871965131422 0.8327708534742598 Sn
    velocity -0.1985770918203812 -0.1557959923245382 0.4896148919757354
atom_frac 0.5582116103372033 0.4403700219878944 0.8497822142948106 Sn
    velocity 0.1957873356536167 -1.1440757026914972 -0.4016045350435736
atom_frac 0.0638693411639775 0.6854415333698320 0.8569504235295485 Sn
    velocity -0.2247720416491935 0.4475274716146378 -0.3281827486358144
atom_frac 0.5605675825631911 0.7006986520188445 0.8548033984040989 Sn
    velocity -2.8356565877539781 -2.8397596222653139 -0.3872647838688441
atom_frac 0.0479266290206513 0.9343584181153879 0.8425812189743465 Sn
    velocity -0.0309830133325613 0.2635941173686694 0.0571089539742646
atom_frac 0.5645261441915023 0.9594777619494192 0.8471447066024808 Sn
    velocity 0.2595709910893206 0.4095078178899391 -0.3867410579800923
atom_frac 0.4459984797298942 0.0597896072443140 0.1385784370321769 Sn
    velocity 1.2536561437393579 -1.9932483927431732 1.6268713065689848
atom_frac 0.9300020169045634 0.0574287343569926 0.1351502218913267 Sn
    velocity -2.9611397511682029 1.7604618980120985 -0.4043114583592677
atom_frac 0.4436728595922644 0.3286623668922736 0.1481666821193246 Sn
    velocity -1.0138462393438616 -2.4073979012041948 1.1587665979602590
atom_frac 0.9389005123560960 0.3090876774398609 0.1535006340190433 Sn
    velocity -1.5521812118323248 0.6992659889937435 0.5059397440108265
atom_frac 0.4417484592140233 0.5697676544394439 0.1522184360579043 Sn
    velocity -3.3514608435160262 0.7974969391916165 -3.0276083100922326
atom_frac 0.9407543495498858 0.5515143363213405 0.1475218397630466 Sn
    velocity 2.1686827748832473 0.6455472101752839 2.3805114662339073
atom_frac 0.4302756670736386 0.8137126171632632 0.1526951290906085 Sn
    velocity 1.2566028932402882 -1.9010244883281362 -1.7637203388738216
atom_frac 0.9332163405512414 0.8092567171013589 0.1528892729020716 Sn
    velocity 0.6024258764046924 0.3823327289823332 3.6191543614081634
atom_frac 0.4471002280389554 0.0619897021980126 0.4062178722653347 Sn
    velocity 0.1112169657734921 -0.4909255885221568 1.0069698008845187
atom_frac 0.9402351316405103 0.0566817099869042 0.3908946057245813 Sn
    velocity -1.6710937286126777 1.0478646830700020 -0.3026584906352149
atom_frac 0.4445183603804394 0.3246542115154079 0.4110291896454757 Sn
    velocity 1.6009221595312737 -0.8171080914618460 -0.8432403270458161
atom_frac 0.9375039215855082 0.3061351250853415 0.3905222535894047 Sn
    velocity 3.0897990233440393 -0.2328042962741574 -1.1060977225911266
atom_frac 0.4332360680354950 0.5646792348610198 0.4137301677650105 Sn
    velocity 0.4158539678821349 -1.7993779564890335 -1.2100613521658099
atom_frac 0.9472737001617451 0.5706136551960572 0.3981186970192110 Sn
    velocity 1.3710382876536218 -4.5670478095710143 -2.0348148340971242
atom_frac 0.4349767236354947 0.8080041678795704 0.3895070526297002 Sn
    velocity -1.9775063481245596 1.1614266269710010 0.2195447545465526
atom_frac 0.9383031998716787 0.8133347910590927 0.4110510650886889 Sn
    velocity 0.4093213053546758 0.5072369852607417 0.3514165441161508
atom_frac 0.4469807478738813 0.0575701157799450 0.6572818127206976 Sn
    velocity -1.9374221544285766 0.1468213567273921 -0.0140137133444651
atom_frac 0.9487086167671810 0.0526242447740638 0.6627466222743974 Sn
    velocity 1.1799440618245765 0.5973147756974976 -1.9373646835324934
atom_frac 0.4346603537385638 0.3060026947420881 0.6444736605633767 Sn
    velocity -0.8879803436666287 -2.3882021275578258 -1.0118814124674156
atom_frac 0.9422670329336232 0.2952133662450583 0.6421854858429757 Sn
    velocity 0.9095595744676169 -1.2520683759102216 -0.8502677141819897
atom_frac 0.4429995848354757 0.5610569606088528 0.6573022946283544 Sn
    velocity -1.6889680161247365 -0.7252506027591826 -1.8384566735852144
atom_frac 0.9397367483186524 0.5590769940165755 0.6471913284585934 Sn
    velocity 0.2937012464777439 -0.9792866620662348 -2.5239598427273191
atom_frac 0.4311342870610534 0.8151366276319710 0.6513261565882619 Sn
    velocity -1.3949416254550386 0.1042634422501182 -1.5481482543396414
atom_frac 0.9394686431265368 0.7902337482207176 0.6533275332113226 Sn
    velocity 0.4103587495483413 -0.7203570558088345 0.0873404996989082
atom_frac 0.4374966777546936 0.0589507754792684 0.9063214198670975 Sn
    velocity 2.0459504227237173 -0.0513700611045861 0.4013065603163353
atom_frac 0.9262924466418937 0.0342179347741145 0.9069543134832561 Sn
    velocity 0.5897782790206128 0.0218081726293636 -0.4103575852896549
atom_frac 0.4508878481109835 0.3135513844992565 0.9049847965118624 Sn
    velocity 1.4302253540348377 1.0025823679160317 -1.1578816364675086
atom_frac 0.9461663736598199 0.3129439284640872 0.9042543025667096 Sn
    velocity 0.3393240896131121 0.4421131729853255 -0.5922690517283331
atom_frac 0.4433991352621867 0.5657296876685979 0.9001868327720768 Sn
    velocity 0.1848015109143096 -1.9426508332979584 -1.1184119943217523
atom_frac 0.9382116887127814 0.5628311613496827 0.9035834118631993 Sn
    velocity -0.4771891445945715 2.5934232462859703 -1.0914122697433004
atom_frac 0.4367117289936306 0.8181949756155806 0.8961046374907019 Sn
    velocity -3.3494702455022147 1.0077381975349979 -2.5649538114022836
atom_frac 0.9506540524599379 0.8142956441097299 0.9075595275409539 Sn
    velocity -0.9933199213260988 -1.3046448431058129 0.1204967791974078
atom_frac 0.1877910244771535 0.0727470455717623 0.2331217856310777 Sn
    velocity -0.2214619907536047 1.3064660919889926 -2.1973205636892015
atom_frac 0.6956053830642592 0.0677969631078094 0.2202438835891533 Sn
    velocity 2.7771949662151365 -1.3733954478751016 0.0247410116202463
atom_frac 0.2006992955965874 0.3152153128937612 0.2225762941564156 Sn
    velocity -0.6875977635585325 -1.6057187754913087 -0.9523816263728800
atom_frac 0.6934266215584131 0.3073734220334152 0.2266250938820269 Sn
    velocity -0.5946750691317080 -1.0728367781294921 0.3347065932996938
atom_frac 0.1873584895919161 0.5660104799835478 0.2220222660920000 Sn
    velocity 0.4359314641343005 -1.0560457540602448 -0.2887879495388309
atom_frac 0.6932220785245728 0.5667496474063142 0.2092349782152868 Sn
    velocity 1.6510393287174314 2.2673972527898361 -1.4672032352143418
atom_frac 0.1913074501420770 0.8127100666182482 0.2265879932753348 Sn
    velocity 0.1895526004023806 1.3200552526584430 -1.5244811534378819
atom_frac 0.6860789934824746 0.8142798221969704 0.2251969989938662 Sn
    velocity 0.7341753606265721 -0.0169568159221118 -2.4819448423590216
atom_frac 0.1870595344453066 0.0496727971335332 0.4796763369573030 Sn
    velocity 1.7245869475306945 0.5969515734311822 0.8531303903553441
atom_frac 0.6852519094552765 0.0629592083110876 0.4647985104382722 Sn
    velocity -0.2841763975884900 2.4275295244070740 1.8475663537710378
atom_frac 0.1839574636579711 0.3046228243947202 0.4886325506676347 Sn
    velocity -0.6430974330517587 -0.0900621613045398 -1.2875411462185622
atom_frac 0.6841038435236907 0.3090106266105621 0.4783105619536387 Sn
    velocity 0.0178500752124551 -0.6892231420938641 -0.8671452038899933
atom_frac 0.1876351890354008 0.5460237329388444 0.4748307347459866 Sn
    velocity -0.4986639274765163 1.9514338400214390 0.6541110429760248
atom_frac 0.6899162046530311 0.5567759116522364 0.4796151380343493 Sn
    velocity 1.4680466080221315 2.7900190886390339 -0.3815830185106595
atom_frac 0.1878831071346578 0.8094209757798343 0.4717218391726530 Sn
    velocity -0.5630406933815271 -0.0677947107268682 1.0451677664061287
atom_frac 0.6844570029504690 0.8020277940683860 0.4739923063736903 Sn
    velocity -0.2572830847721255 1.7050794285546618 0.7805925032392581
atom_frac 0.1823536863539043 0.0684073670104186 0.7310030449448153 Sn