#=======================================================
# FHI-aims file: /Users/flokno/working/projects/so3krates/dev_SnSe/test_10_EOS_easy/finer/so3krates_L3/eos/013/relaxation/geometry.in.next_step
# Created using the Atomic Simulation Environment (ASE)
# Mon Apr 17 17:23:50 2023

# Additional information:
#  Relaxed with BFGS, fmax=0.100 meV/AA
#  nsteps = 19
#  residual force  = 0.093253 meV/AA
#=======================================================
lattice_vector 11.6007009869799997 -0.0000000000000000 0.0000000000000000 
lattice_vector 0.0000000000000000 4.1946638908649998 0.0000000000000000 
lattice_vector 0.0000000000000000 0.0000000000000000 4.3924168219309996 
atom_frac 0.8582017249890000 0.7500000000000000 0.0332214801810000 Se
atom_frac 0.1417982750110000 0.2500000000000000 0.9667785198190001 Se
atom_frac 0.6417982750109998 0.2500000000000000 0.5332214801810000 Se
atom_frac 0.3582017249890000 0.7500000000000000 0.4667785198190000 Se
atom_frac 0.1204230806570000 0.7500000000000000 0.3951826785950000 Sn
atom_frac 0.8795769193430000 0.2500000000000000 0.6048173214050000 Sn
atom_frac 0.3795769193429999 0.2500000000000000 0.8951826785950001 Sn
atom_frac 0.6204230806570000 0.7500000000000000 0.1048173214050000 Sn
