#=======================================================
# FHI-aims file: /Users/flokno/working/projects/so3krates/dev_SnSe/test_10_EOS_easy/finer/so3krates_L3/eos/012/relaxation/geometry.in.next_step
# Created using the Atomic Simulation Environment (ASE)
# Mon Apr 17 17:23:28 2023

# Additional information:
#  Relaxed with BFGS, fmax=0.100 meV/AA
#  nsteps = 16
#  residual force  = 0.080926 meV/AA
#=======================================================
lattice_vector 11.5891349840019995 -0.0000000000000000 0.0000000000000000 
lattice_vector 0.0000000000000000 4.1904817733259998 0.0000000000000000 
lattice_vector 0.0000000000000000 0.0000000000000000 4.3880375429459999 
atom_frac 0.8582624015130000 0.7500000000000000 0.0332117656900000 Se
atom_frac 0.1417375984870000 0.2500000000000000 0.9667882343100000 Se
atom_frac 0.6417375984869998 0.2500000000000000 0.5332117656900000 Se
atom_frac 0.3582624015130000 0.7500000000000000 0.4667882343100000 Se
atom_frac 0.1202613426250000 0.7500000000000000 0.3959039291770000 Sn
atom_frac 0.8797386573750000 0.2500000000000000 0.6040960708230000 Sn
atom_frac 0.3797386573750000 0.2500000000000000 0.8959039291770000 Sn
atom_frac 0.6202613426250000 0.7500000000000000 0.1040960708230000 Sn
