#=======================================================
# FHI-aims file: /cfs/klemming/projects/snic/snic2021-1-10/dardel-test/flokno/projects/so3krates/dev_SnSe/test_10_EOS_easy/finer/dft_01/eos/008/relaxation/geometry.in.next_step
# Created using the Atomic Simulation Environment (ASE)
# Mon Apr 17 17:20:38 2023

# Additional information:
#  Relaxed with BFGS, fmax=0.100 meV/AA
#  nsteps = 19
#  residual force  = 0.076875 meV/AA
#=======================================================
lattice_vector 11.5428709720900002 -0.0000000000000000 0.0000000000000000 
lattice_vector 0.0000000000000000 4.1737533031740002 0.0000000000000000 
lattice_vector 0.0000000000000000 0.0000000000000000 4.3705204270060003 
atom_frac 0.8583998547020000 0.7499998501260001 0.0330644617380000 Se
atom_frac 0.1416001574040000 0.2500000189790000 0.9669356878840000 Se
atom_frac 0.6415999169840000 0.2500001348840000 0.5330643687890000 Se
atom_frac 0.3583999970050000 0.7500000704670001 0.4669355631070000 Se
atom_frac 0.1195886630810000 0.7499999252380001 0.3989986881310000 Sn
atom_frac 0.8804113997520001 0.2499999793400000 0.6010012055120000 Sn
atom_frac 0.3804113157700000 0.2499999542390000 0.8989988290599999 Sn
atom_frac 0.6195886953010001 0.7500000667280000 0.1010011957800000 Sn
