#=======================================================
# FHI-aims file: eos/019/geometry.in
# Created using the Atomic Simulation Environment (ASE)
# Mon Apr 17 17:11:54 2023
#=======================================================
lattice_vector 11.6700970048484134 -0.0000000000000000 0.0000000000000000 
lattice_vector 0.0000000000000000 4.2197565960942498 0.0000000000000000 
lattice_vector 0.0000000000000000 0.0000000000000000 4.4186924958407836 
atom 10.0165405008592270 3.1648174470706869 0.1452647134002756 Se
atom 1.6535565039891864 1.0549391490235625 4.2734277824405114 Se
atom 7.4886050064133922 1.0549391490235625 2.3546109613206649 Se
atom 4.1814919984350194 3.1648174470706869 2.0640815345201196 Se
atom 1.3997335770434114 3.1648174470706869 1.7585355680008405 Sn
atom 10.2703634278050213 1.0549391490235625 2.6601569278399442 Sn
atom 4.4353149253807951 1.0549391490235625 3.9678818159212330 Sn
atom 7.2347820794676165 3.1648174470706869 0.4508106799195560 Sn
