#=======================================================
# FHI-aims file: /Users/flokno/working/projects/so3krates/dev_SnSe/test_10_EOS_easy/finer/so3krates_L1/eos/003/relaxation/geometry.in.next_step
# Created using the Atomic Simulation Environment (ASE)
# Mon Apr 17 17:08:07 2023

# Additional information:
#  Relaxed with BFGS, fmax=0.100 meV/AA
#  nsteps = 22
#  residual force  = 0.019585 meV/AA
#=======================================================
lattice_vector 11.4850409572000007 -0.0000000000000000 0.0000000000000000 
lattice_vector 0.0000000000000000 4.1528427154819996 0.0000000000000000 
lattice_vector 0.0000000000000000 0.0000000000000000 4.3486240320810001 
atom_frac 0.8587673160680002 0.7500000000000000 0.0282570433840000 Se
atom_frac 0.1412326839320000 0.2500000000000000 0.9717429566170002 Se
atom_frac 0.6412326839319999 0.2500000000000000 0.5282570433840000 Se
atom_frac 0.3587673160680000 0.7500000000000000 0.4717429566170000 Se
atom_frac 0.1191662501580000 0.7500000000000000 0.4094290908990000 Sn
atom_frac 0.8808337498420000 0.2500000000000000 0.5905709091010000 Sn
atom_frac 0.3808337498420000 0.2500000000000000 0.9094290908990000 Sn
atom_frac 0.6191662501580001 0.7500000000000000 0.0905709091010000 Sn
