#=======================================================
# FHI-aims file: /Users/flokno/working/projects/so3krates/dev_SnSe/test_10_EOS_easy/so3krates_L3/eos/010/relaxation/geometry.in.next_step
# Created using the Atomic Simulation Environment (ASE)
# Thu Apr 13 17:26:51 2023

# Additional information:
#  Relaxed with BFGS, fmax=0.100 meV/AA
#  nsteps = 18
#  residual force  = 0.057639 meV/AA
#=======================================================
lattice_vector 11.7973230376070006 -0.0000000000000000 0.0000000000000000 
lattice_vector 0.0000000000000000 4.2657598890150004 0.0000000000000000 
lattice_vector 0.0000000000000000 0.0000000000000000 4.4668645646760003 
atom_frac 0.8572821241950001 0.7499999999999999 0.0320293258980000 Se
atom_frac 0.1427178758050000 0.2500000000000000 0.9679706741020001 Se
atom_frac 0.6427178758049999 0.2500000000000000 0.5320293258980000 Se
atom_frac 0.3572821241950000 0.7499999999999999 0.4679706741020000 Se
atom_frac 0.1239286049670000 0.7499999999999999 0.3864412301780000 Sn
atom_frac 0.8760713950329999 0.2500000000000000 0.6135587698220000 Sn
atom_frac 0.3760713950330000 0.2500000000000000 0.8864412301780000 Sn
atom_frac 0.6239286049670000 0.7499999999999999 0.1135587698220000 Sn
