#=======================================================
# FHI-aims file: /Users/flokno/working/projects/so3krates/dev_SnSe/test_10_EOS_easy/finer/so3krates_L3/eos/009/relaxation/geometry.in.next_step
# Created using the Atomic Simulation Environment (ASE)
# Mon Apr 17 17:22:29 2023

# Additional information:
#  Relaxed with BFGS, fmax=0.100 meV/AA
#  nsteps = 11
#  residual force  = 0.052689 meV/AA
#=======================================================
lattice_vector 11.5544369750680005 -0.0000000000000000 0.0000000000000000 
lattice_vector 0.0000000000000000 4.1779354207120001 0.0000000000000000 
lattice_vector 0.0000000000000000 0.0000000000000000 4.3748997059910000 
atom_frac 0.8584553822689999 0.7500000000000000 0.0331189287100000 Se
atom_frac 0.1415446177310000 0.2500000000000000 0.9668810712900000 Se
atom_frac 0.6415446177310000 0.2500000000000000 0.5331189287100000 Se
atom_frac 0.3584553822690000 0.7500000000000000 0.4668810712900000 Se
atom_frac 0.1198147396510000 0.7500000000000000 0.3982257735870000 Sn
atom_frac 0.8801852603490000 0.2500000000000000 0.6017742264129999 Sn
atom_frac 0.3801852603490001 0.2500000000000000 0.8982257735870000 Sn
atom_frac 0.6198147396510000 0.7500000000000000 0.1017742264130000 Sn
