#=======================================================
# FHI-aims file: geometry.in.primitive.supercell_6912.0300K
# Created using the Atomic Simulation Environment (ASE)
# Thu Apr 13 11:18:16 2023

# Additional information:
#  created from MB distrubtion
#  T = 300.0 K
#  quantum:             False
#  deterministic:       False
#  plus_minus:          False
#  gauge_eigenvectors:  False
#  Random seed:         1745923922
#  Sample number:       1
#=======================================================
lattice_vector 69.8071551293221120 0.0000000000000000 0.0000000000000000 
lattice_vector 0.0000000000000000 50.3480343057842390 0.0000000000000000 
lattice_vector 0.0000000000000000 0.0000000000000000 52.8506582996041203 
atom 9.9860094894972526 3.1467521441115149 0.1447889795856746 Se
    velocity -4.0841114225621453 0.8135955448387854 -0.6085976110709572
atom 21.6205353443842654 3.1467521441115149 0.1447889795856746 Se
    velocity -0.8005827975720891 -0.6549967561767536 -0.7770679321199057
atom 33.2550611992712817 3.1467521441115149 0.1447889795856746 Se
    velocity -2.0022179335286756 -0.3429789418921015 0.4324248990034190
atom 44.8895870541582980 3.1467521441115149 0.1447889795856746 Se
    velocity 0.2155596305101041 2.7812850954316439 -0.1820586388169328
atom 56.5241129090453143 3.1467521441115149 0.1447889795856746 Se
    velocity 0.0430118198102377 1.3892532716876087 -1.1286686844665141
atom 68.1586387639323306 3.1467521441115149 0.1447889795856746 Se
    velocity 1.4309149548654272 -2.6457461540339953 1.7455227134113906
atom 9.9860094894972526 7.3424216695935325 0.1447889795856746 Se
    velocity 1.5248803082917770 -1.4564658816421676 6.2488182577363114
atom 21.6205353443842654 7.3424216695935325 0.1447889795856746 Se
    velocity -0.7037616284643716 1.1686725760283305 0.4393836857113794
atom 33.2550611992712817 7.3424216695935325 0.1447889795856746 Se
    velocity 0.3504520628576407 3.7400275738409015 2.6250111351882262
atom 44.8895870541582980 7.3424216695935325 0.1447889795856746 Se
    velocity -1.1083753379774977 0.7523705293282025 3.0106522330849228
atom 56.5241129090453143 7.3424216695935325 0.1447889795856746 Se
    velocity 0.8876076122653381 -2.1360819919254812 0.2963742917104817
atom 68.1586387639323306 7.3424216695935325 0.1447889795856746 Se
    velocity 0.6885060861624330 1.3745234650233460 -0.6666805018644686
atom 9.9860094894972526 11.5380911950755518 0.1447889795856746 Se
    velocity -1.8337061519619462 -0.5355263324495920 0.1803019415817984
atom 21.6205353443842654 11.5380911950755518 0.1447889795856746 Se
    velocity 2.3383075209624975 -0.7721544195065631 -1.0982536261185503
atom 33.2550611992712817 11.5380911950755518 0.1447889795856746 Se
    velocity -1.6260330182025982 0.9978752304244999 1.3663885764792945
atom 44.8895870541582980 11.5380911950755518 0.1447889795856746 Se
    velocity 0.9499142234212301 0.0304304204680784 3.2757737079517946
atom 56.5241129090453143 11.5380911950755518 0.1447889795856746 Se
    velocity 2.1794805427724087 0.2364585361740064 -0.1526430115091292
atom 68.1586387639323306 11.5380911950755518 0.1447889795856746 Se
    velocity -1.2191096906450978 2.0343517910193554 0.0882061689285087
atom 9.9860094894972526 15.7337607205575747 0.1447889795856746 Se
    velocity -0.4370605462335628 0.3486298529452567 0.3574231649472651
atom 21.6205353443842654 15.7337607205575747 0.1447889795856746 Se
    velocity 0.7502411667697464 0.9861369728346966 -0.4433141982251881
atom 33.2550611992712817 15.7337607205575747 0.1447889795856746 Se
    velocity -0.9620028171713905 0.0981112830657530 -0.9936956404547230
atom 44.8895870541582980 15.7337607205575747 0.1447889795856746 Se
    velocity 0.6083887450316028 -0.7428144449265540 -1.4182934514331840
atom 56.5241129090453143 15.7337607205575747 0.1447889795856746 Se
    velocity -3.2933770083996317 -1.3188003679259432 -0.6353252614567834
atom 68.1586387639323306 15.7337607205575747 0.1447889795856746 Se
    velocity 0.4465507567160515 0.6662747597608392 -2.5157114141339938
atom 9.9860094894972526 19.9294302460395940 0.1447889795856746 Se
    velocity 0.9221986512780174 2.7708537093575014 0.2285787927445240
atom 21.6205353443842654 19.9294302460395940 0.1447889795856746 Se
    velocity -1.0746497526561067 2.1174402300373778 -0.2893824722561937
atom 33.2550611992712817 19.9294302460395940 0.1447889795856746 Se
    velocity 0.6097445039208791 0.7919811745807652 -0.9362812828059303
atom 44.8895870541582980 19.9294302460395940 0.1447889795856746 Se
    velocity 2.0595691452980298 2.3631953573050559 1.9318934753726322
atom 56.5241129090453143 19.9294302460395940 0.1447889795856746 Se
    velocity 1.2694231933237383 -1.1781858628953372 1.7706913162966829
atom 68.1586387639323306 19.9294302460395940 0.1447889795856746 Se
    velocity -2.1226178475354134 0.0360714624492326 -1.2641526623469583
atom 9.9860094894972526 24.1250997715216116 0.1447889795856746 Se
    velocity 2.2888341042926514 4.0890863605625540 -0.1688095048417483
atom 21.6205353443842654 24.1250997715216116 0.1447889795856746 Se
    velocity -1.3811238282004794 0.8351980479348767 -0.1330832416880885
atom 33.2550611992712817 24.1250997715216116 0.1447889795856746 Se
    velocity -1.0564773337956721 1.9070281076760021 -0.5763624551021791
atom 44.8895870541582980 24.1250997715216116 0.1447889795856746 Se
    velocity 3.9838880883567129 -1.3864683290759756 0.8504755340415238
atom 56.5241129090453143 24.1250997715216116 0.1447889795856746 Se
    velocity -1.7022015677000197 0.1527742647143073 -1.1804064087262316
atom 68.1586387639323306 24.1250997715216116 0.1447889795856746 Se
    velocity -0.7027908362426495 0.8110967468641795 -0.2264742754280396
atom 9.9860094894972526 28.3207692970036362 0.1447889795856746 Se
    velocity 0.0119241511437106 0.5167528990644600 -4.3842631664629872
atom 21.6205353443842654 28.3207692970036362 0.1447889795856746 Se
    velocity -1.9272910347997305 -2.1777282179198045 0.1085264442516391
atom 33.2550611992712817 28.3207692970036362 0.1447889795856746 Se
    velocity 1.1508773954502631 0.2217611079447630 0.3730401745375100
atom 44.8895870541582980 28.3207692970036362 0.1447889795856746 Se
    velocity 2.9348077586290962 -1.0219959944458166 -0.6501729624579455
atom 56.5241129090453143 28.3207692970036362 0.1447889795856746 Se
    velocity -0.0593602444662616 -4.1314394177270994 -0.6508095675872699
atom 68.1586387639323306 28.3207692970036362 0.1447889795856746 Se
    velocity -0.1800347311392498 2.6357070735453170 -0.8074798025308527
atom 9.9860094894972526 32.5164388224856538 0.1447889795856746 Se
    velocity -1.9551512885092988 1.5447171488372351 2.7163220544278865
atom 21.6205353443842654 32.5164388224856538 0.1447889795856746 Se
    velocity -0.2248245661743237 -0.3193736903141747 -2.9170085978270230
atom 33.2550611992712817 32.5164388224856538 0.1447889795856746 Se
    velocity -0.7983696713400367 1.5350852457878961 -0.9473672227587336
atom 44.8895870541582980 32.5164388224856538 0.1447889795856746 Se
    velocity 0.9632621439751818 0.7058204111859038 -0.5266103500142055
atom 56.5241129090453143 32.5164388224856538 0.1447889795856746 Se
    velocity 1.3381653796822091 -0.1513020611790383 2.0481311588055422
atom 68.1586387639323306 32.5164388224856538 0.1447889795856746 Se
    velocity 0.3121609716755118 0.7653385039675786 -0.6830330374236986
atom 9.9860094894972526 36.7121083479676713 0.1447889795856746 Se
    velocity -0.6524449934098444 -1.1559493428733767 1.6488779805333003
atom 21.6205353443842654 36.7121083479676713 0.1447889795856746 Se
    velocity 2.3263111291480696 0.4034488704729655 0.3447834457252835
atom 33.2550611992712817 36.7121083479676713 0.1447889795856746 Se
    velocity -3.3488341582096917 -1.8308085739022306 2.0239144513251026
atom 44.8895870541582980 36.7121083479676713 0.1447889795856746 Se
    velocity -1.4014600021430550 -1.1049414350984337 3.4448537458524839
atom 56.5241129090453143 36.7121083479676713 0.1447889795856746 Se
    velocity 1.1077013250839263 -1.7063253212673164 -0.4708580042383576
atom 68.1586387639323306 36.7121083479676713 0.1447889795856746 Se
    velocity 0.0402472772667090 0.7274516658309075 -0.0769412429174941
atom 9.9860094894972526 40.9077778734496960 0.1447889795856746 Se
    velocity -3.3801570549118241 0.3290651486031959 3.1748985965110679
atom 21.6205353443842654 40.9077778734496960 0.1447889795856746 Se
    velocity 2.1073676744920404 0.0265647440157355 0.7250660342906375
atom 33.2550611992712817 40.9077778734496960 0.1447889795856746 Se
    velocity 3.0715030011453828 -0.9050867471918044 0.2820526061231808
atom 44.8895870541582980 40.9077778734496960 0.1447889795856746 Se
    velocity 0.3144061391852378 -0.2074791362512404 2.1948075332622006
atom 56.5241129090453143 40.9077778734496960 0.1447889795856746 Se
    velocity 1.3504571264393777 1.2870787922261255 -0.1723021893985119
atom 68.1586387639323306 40.9077778734496960 0.1447889795856746 Se
    velocity 0.5525684171913492 1.4617375194281179 -0.9964068667082282
atom 9.9860094894972526 45.1034473989317135 0.1447889795856746 Se
    velocity 0.8970655911989943 1.9962573537839343 -0.9260091093917963
atom 21.6205353443842654 45.1034473989317135 0.1447889795856746 Se
    velocity 1.1260399741956808 -0.5424784692396302 -3.3026000489540537
atom 33.2550611992712817 45.1034473989317135 0.1447889795856746 Se
    velocity -2.6646105518334231 -2.6043772034673709 0.7044377057341044
atom 44.8895870541582980 45.1034473989317135 0.1447889795856746 Se
    velocity -2.3681913974591375 -4.8920620328014124 2.6132243949199392
atom 56.5241129090453143 45.1034473989317135 0.1447889795856746 Se
    velocity 2.2566723474142498 -1.1560448284067764 -3.0457135983996704
atom 68.1586387639323306 45.1034473989317135 0.1447889795856746 Se
    velocity 2.8205907891957809 -2.5656296002789225 3.8369635947219249
atom 9.9860094894972526 49.2991169244137311 0.1447889795856746 Se
    velocity 0.4814724027570274 0.9052930300161073 -1.6045680957385984
atom 21.6205353443842654 49.2991169244137311 0.1447889795856746 Se
    velocity 3.1872147027278115 0.9988929347774806 0.2446933777820318
atom 33.2550611992712817 49.2991169244137311 0.1447889795856746 Se
    velocity 0.0351737293148245 0.8271096044391877 1.2490369980595020
atom 44.8895870541582980 49.2991169244137311 0.1447889795856746 Se
    velocity 0.0281105489138419 3.5877783518702624 0.4093273025237585
atom 56.5241129090453143 49.2991169244137311 0.1447889795856746 Se
    velocity -1.2565225063991472 -1.5630594034486252 -0.1975014946157390
atom 68.1586387639323306 49.2991169244137311 0.1447889795856746 Se
    velocity -1.8731582781566283 -3.5774935284629930 -0.7870055250418353
atom 9.9860094894972526 3.1467521441115149 4.5490105045526832 Se
    velocity 0.1681854476865636 0.7428666573250977 -0.6508376527276153
atom 21.6205353443842654 3.1467521441115149 4.5490105045526832 Se
    velocity -0.7421713637023302 -1.8118758436669500 1.9459067937858929
atom 33.2550611992712817 3.1467521441115149 4.5490105045526832 Se
    velocity -1.6108882422415316 -0.3199009309542971 -4.4098987013505671
atom 44.8895870541582980 3.1467521441115149 4.5490105045526832 Se
    velocity -0.9054288440196235 1.7589216725535071 -3.0282830077377638
atom 56.5241129090453143 3.1467521441115149 4.5490105045526832 Se
    velocity 1.0951843549973495 1.2071846793622139 -0.1573626841142020
atom 68.1586387639323306 3.1467521441115149 4.5490105045526832 Se
    velocity -1.0288336715932744 3.3765134369349865 0.5655433449214029
atom 9.9860094894972526 7.3424216695935325 4.5490105045526832 Se
    velocity -1.8214134771367179 0.6202961447236739 -2.8236511079550044
atom 21.6205353443842654 7.3424216695935325 4.5490105045526832 Se
    velocity -2.3395465866575780 -1.0928126356989170 0.7095683724240928
atom 33.2550611992712817 7.3424216695935325 4.5490105045526832 Se
    velocity -0.4557007508307180 1.7830967997025995 2.9444906558810802
atom 44.8895870541582980 7.3424216695935325 4.5490105045526832 Se
    velocity 0.9585668722111192 1.5293730365134504 -0.7379727392947188
atom 56.5241129090453143 7.3424216695935325 4.5490105045526832 Se
    velocity 0.3627949077506291 3.7076498430625962 0.7574766438019069
atom 68.1586387639323306 7.3424216695935325 4.5490105045526832 Se
    velocity 1.1960188352046175 1.4977948870658531 1.4846104826442457
atom 9.9860094894972526 11.5380911950755518 4.5490105045526832 Se
    velocity -0.7282440808068161 1.1364637866400726 -0.3968796775501229
atom 21.6205353443842654 11.5380911950755518 4.5490105045526832 Se
    velocity 2.8973943494675694 0.2825132645939126 3.3747288653905301
atom 33.2550611992712817 11.5380911950755518 4.5490105045526832 Se
    velocity -0.8560184884034662 1.5547281045415846 0.1338998507406890
atom 44.8895870541582980 11.5380911950755518 4.5490105045526832 Se
    velocity -4.8602581221408352 -3.0156549304043674 -3.4930150744374653
atom 56.5241129090453143 11.5380911950755518 4.5490105045526832 Se
    velocity -3.7887554025214638 0.6208594295520516 -2.7546125358695304
atom 68.1586387639323306 11.5380911950755518 4.5490105045526832 Se
    velocity -1.2734024704894531 1.2104638688486302 1.6650919726482920
atom 9.9860094894972526 15.7337607205575747 4.5490105045526832 Se
    velocity -1.2061640760334251 1.9130371412813103 1.5290812963115066
atom 21.6205353443842654 15.7337607205575747 4.5490105045526832 Se
    velocity 0.2004932805145018 -0.7995103381206669 -1.9485784757175435
atom 33.2550611992712817 15.7337607205575747 4.5490105045526832 Se
    velocity 0.0153737801658889 -0.2179824765702450 1.0673704771837882
atom 44.8895870541582980 15.7337607205575747 4.5490105045526832 Se
    velocity 1.7745806564990037 0.0188247789814896 -0.3288298913344029
atom 56.5241129090453143 15.7337607205575747 4.5490105045526832 Se
    velocity -0.2367633674587627 0.3652992831010342 -1.3771708504285207
atom 68.1586387639323306 15.7337607205575747 4.5490105045526832 Se
    velocity 3.3099950696812876 -0.2040843660985910 -2.7399563892016139
atom 9.9860094894972526 19.9294302460395940 4.5490105045526832 Se
    velocity -2.4138112620700896 1.5376391386925798 -0.5984995600469203
atom 21.6205353443842654 19.9294302460395940 4.5490105045526832 Se
    velocity 0.1274667834201163 1.1697257983536125 0.5271185878855191
atom 33.2550611992712817 19.9294302460395940 4.5490105045526832 Se
    velocity -0.3877155288886606 -0.4693962485520273 -1.7436024905174556
atom 44.8895870541582980 19.9294302460395940 4.5490105045526832 Se
    velocity -1.0487189032354549 -1.2345192866659831 -2.6002626329542489
atom 56.5241129090453143 19.9294302460395940 4.5490105045526832 Se
    velocity -2.2300524129913351 1.8321070575690006 0.0708668154831081
atom 68.1586387639323306 19.9294302460395940 4.5490105045526832 Se
    velocity -1.2026048056887393 -1.8477720267251803 2.3410919315980689
atom 9.9860094894972526 24.1250997715216116 4.5490105045526832 Se
    velocity 3.5574089375582161 -2.1490193237344082 3.2735551820150794
atom 21.6205353443842654 24.1250997715216116 4.5490105045526832 Se
    velocity -0.2464064859321129 -0.8757765988528783 0.4175392951734382
atom 33.2550611992712817 24.1250997715216116 4.5490105045526832 Se
    velocity 0.6873239281270298 -1.6095574274010065 0.6873940507835826
atom 44.8895870541582980 24.1250997715216116 4.5490105045526832 Se
    velocity -1.8775322374093402 0.2403041443886847 -0.1214072585393983
atom 56.5241129090453143 24.1250997715216116 4.5490105045526832 Se
    velocity 1.1974940911972167 -0.8979905562058909 -1.6937216012766805
atom 68.1586387639323306 24.1250997715216116 4.5490105045526832 Se
    velocity -1.2113533363970601 -1.4010859955128461 0.4887936035726637
atom 9.9860094894972526 28.3207692970036362 4.5490105045526832 Se
    velocity -0.2155619055551219 -2.5300375872522052 -0.4736106661012339
atom 21.6205353443842654 28.3207692970036362 4.5490105045526832 Se
    velocity 1.0430330111127444 -1.0325193582781020 -2.6208372952635854
atom 33.2550611992712817 28.3207692970036362 4.5490105045526832 Se
    velocity 1.7922775757951199 -2.4332789884267783 4.7347900035797990
atom 44.8895870541582980 28.3207692970036362 4.5490105045526832 Se
    velocity 2.4889735683850729 0.8317426924277487 1.6839371517256025
atom 56.5241129090453143 28.3207692970036362 4.5490105045526832 Se
    velocity 0.3518563298846164 1.5760150938239854 0.4628603469201593
atom 68.1586387639323306 28.3207692970036362 4.5490105045526832 Se
    velocity 1.2787526845770121 1.3270691258814948 -0.7426151483228166
atom 9.9860094894972526 32.5164388224856538 4.5490105045526832 Se
    velocity 0.3500808169485443 2.4574538367033654 -3.4774859953133359
atom 21.6205353443842654 32.5164388224856538 4.5490105045526832 Se
    velocity -0.9534715674833955 2.9237990876165925 -0.9037669701406221
atom 33.2550611992712817 32.5164388224856538 4.5490105045526832 Se
    velocity -2.6563256258049708 2.7133644246693724 -1.2323203661717197
atom 44.8895870541582980 32.5164388224856538 4.5490105045526832 Se
    velocity -1.9142547536508512 -0.6823005441601856 1.8852580157710861
atom 56.5241129090453143 32.5164388224856538 4.5490105045526832 Se
    velocity -3.2475155852268700 2.4086898939100814 -0.9092018974881216
atom 68.1586387639323306 32.5164388224856538 4.5490105045526832 Se
    velocity 0.0064025291369099 0.8710713596788446 -0.2555197172003932
atom 9.9860094894972526 36.7121083479676713 4.5490105045526832 Se
    velocity -0.7271739151045026 0.1284899735556292 -0.1663564842337494
atom 21.6205353443842654 36.7121083479676713 4.5490105045526832 Se
    velocity 0.4048747193279899 -2.6399614186297105 -1.5635482119465702
atom 33.2550611992712817 36.7121083479676713 4.5490105045526832 Se
    velocity -2.1636375285753231 1.4143372624111457 1.9719533422179885
atom 44.8895870541582980 36.7121083479676713 4.5490105045526832 Se
    velocity 1.1731897974098815 -1.6773395270936338 1.8379350575768112
atom 56.5241129090453143 36.7121083479676713 4.5490105045526832 Se
    velocity 0.1645808729654670 0.9746864976595857 -2.1625593746316967
atom 68.1586387639323306 36.7121083479676713 4.5490105045526832 Se
    velocity -0.3179707836761314 -4.0945530314619809 -0.7768990794325012
atom 9.9860094894972526 40.9077778734496960 4.5490105045526832 Se
    velocity 3.0228812095239892 0.7230228829370031 -1.2578833740040722
atom 21.6205353443842654 40.9077778734496960 4.5490105045526832 Se
    velocity -0.1044010351018607 -0.6349947459081461 1.7662177567028006
atom 33.2550611992712817 40.9077778734496960 4.5490105045526832 Se
    velocity -0.4627153753973772 1.2332829089822059 -2.9170930391189929
atom 44.8895870541582980 40.9077778734496960 4.5490105045526832 Se
    velocity -2.0233562606092819 -0.4528966249312182 -1.7763096391469191
atom 56.5241129090453143 40.9077778734496960 4.5490105045526832 Se
    velocity 1.7908360623353898 -0.3479308690659794 1.7445264096714233
atom 68.1586387639323306 40.9077778734496960 4.5490105045526832 Se
    velocity -1.2751151397511924 -3.4767316516902134 0.0964744785621970
atom 9.9860094894972526 45.1034473989317135 4.5490105045526832 Se
    velocity 2.3976408312597481 -0.8036840085569604 2.6869062748454291
atom 21.6205353443842654 45.1034473989317135 4.5490105045526832 Se
    velocity 0.6786071571947160 0.8306416993412986 0.2865944218243753
atom 33.2550611992712817 45.1034473989317135 4.5490105045526832 Se
    velocity 2.0529104066921655 1.6665857762722465 -2.7924624659234958
atom 44.8895870541582980 45.1034473989317135 4.5490105045526832 Se
    velocity 2.3649994945547039 1.7606075388808224 1.8312135838564221
atom 56.5241129090453143 45.1034473989317135 4.5490105045526832 Se
    velocity -2.3681954465502368 0.4494266034572852 1.3730897453701201
atom 68.1586387639323306 45.1034473989317135 4.5490105045526832 Se
    velocity 0.0981141360192073 1.2012612259726920 0.9125693444073361
atom 9.9860094894972526 49.2991169244137311 4.5490105045526832 Se
    velocity -1.0472101024707419 -1.6858449189808367 1.2526090305361524
atom 21.6205353443842654 49.2991169244137311 4.5490105045526832 Se
    velocity 3.2512735790730845 0.4218248496895444 -1.9295055766647033
atom 33.2550611992712817 49.2991169244137311 4.5490105045526832 Se
    velocity 1.2624978707026544 -0.7971800886564337 0.5068806935370865
atom 44.8895870541582980 49.2991169244137311 4.5490105045526832 Se
    velocity 0.2378893329725642 0.9052847181552670 -1.2655344765059546
atom 56.5241129090453143 49.2991169244137311 4.5490105045526832 Se
    velocity -0.9926655232271858 -1.3022166103798960 -2.0680668770888566
atom 68.1586387639323306 49.2991169244137311 4.5490105045526832 Se
    velocity -0.3297935607026121 -0.0731066101641149 1.7393310393498067
atom 9.9860094894972526 3.1467521441115149 8.9532320295196914 Se
    velocity 1.0294996978157516 -2.5725460741248245 -2.5464177900152318
atom 21.6205353443842654 3.1467521441115149 8.9532320295196914 Se
    velocity 1.0104969286870957 1.7935855441720936 0.7942754767307272
atom 33.2550611992712817 3.1467521441115149 8.9532320295196914 Se
    velocity 1.0776042018873349 -0.7275745639350450 -0.1451703111094342
atom 44.8895870541582980 3.1467521441115149 8.9532320295196914 Se
    velocity -0.6049897646062726 2.4979459016084280 0.6918572397023726
atom 56.5241129090453143 3.1467521441115149 8.9532320295196914 Se
    velocity -0.9841430419357887 3.9746720829415207 -1.9066372416344768
atom 68.1586387639323306 3.1467521441115149 8.9532320295196914 Se
    velocity -0.3270568731189510 0.6418362697510023 0.3390898701814807
atom 9.9860094894972526 7.3424216695935325 8.9532320295196914 Se
    velocity -1.9002260491952909 0.7178241643383739 0.3885682929724794
atom 21.6205353443842654 7.3424216695935325 8.9532320295196914 Se
    velocity -0.5325449042001742 0.9678247272535495 1.5745637828736931
atom 33.2550611992712817 7.3424216695935325 8.9532320295196914 Se
    velocity 0.8401642035949720 2.0656579459681343 -1.1206696689869649
atom 44.8895870541582980 7.3424216695935325 8.9532320295196914 Se
    velocity 1.5340871784746155 -0.5764324670945727 -4.1535626738375360
atom 56.5241129090453143 7.3424216695935325 8.9532320295196914 Se
    velocity -1.3117273320919538 -1.0430420776943530 1.8434702399951928
atom 68.1586387639323306 7.3424216695935325 8.9532320295196914 Se
    velocity -1.4660558992273496 -1.7224691031905868 1.0079650019496100
atom 9.9860094894972526 11.5380911950755518 8.9532320295196914 Se
    velocity -3.3449955562819302 -0.7606572940716703 1.8379229628651670
atom 21.6205353443842654 11.5380911950755518 8.9532320295196914 Se
    velocity 1.7194772644321668 0.2453313164224832 -0.4533125974009799
atom 33.2550611992712817 11.5380911950755518 8.9532320295196914 Se
    velocity -0.4654582876430945 -0.0414784932601054 1.3792961242169379
atom 44.8895870541582980 11.5380911950755518 8.9532320295196914 Se
    velocity 0.1199759829286672 -3.4809817328925936 -1.1203689216688999
atom 56.5241129090453143 11.5380911950755518 8.9532320295196914 Se
    velocity 2.4183396299724733 2.5444025197977247 2.7314670819718918
atom 68.1586387639323306 11.5380911950755518 8.9532320295196914 Se
    velocity 0.5658773119321635 -2.4358416160014289 -0.2143384313198972
atom 9.9860094894972526 15.7337607205575747 8.9532320295196914 Se
    velocity -3.3495228482732413 -0.3468636396880874 -0.7704929772731721
atom 21.6205353443842654 15.7337607205575747 8.9532320295196914 Se
    velocity -0.4460490739482729 -1.6366772212379159 1.6118829017353946
atom 33.2550611992712817 15.7337607205575747 8.9532320295196914 Se
    velocity 0.2976925240802220 -2.9435852317573472 1.3980346495551241
atom 44.8895870541582980 15.7337607205575747 8.9532320295196914 Se
    velocity 0.4166690841911915 1.5406320576522883 0.1758417931302621
atom 56.5241129090453143 15.7337607205575747 8.9532320295196914 Se
    velocity -1.5740099594839350 -2.5429107395027239 0.6689771685789477
atom 68.1586387639323306 15.7337607205575747 8.9532320295196914 Se
    velocity 1.4677921680477846 -0.9677704488655742 0.9972598237121063
atom 9.9860094894972526 19.9294302460395940 8.9532320295196914 Se
    velocity 2.0458257622161731 -0.2264549590629742 -3.9636942051231387
atom 21.6205353443842654 19.9294302460395940 8.9532320295196914 Se
    velocity 0.0173118311766639 -0.7496800040946801 2.4221006170221715
atom 33.2550611992712817 19.9294302460395940 8.9532320295196914 Se
    velocity 1.4480106253017402 -1.2161907265703802 -1.5278338854228946
atom 44.8895870541582980 19.9294302460395940 8.9532320295196914 Se
    velocity -1.5357403528629334 1.4300376620587461 0.4647028972475558
atom 56.5241129090453143 19.9294302460395940 8.9532320295196914 Se
    velocity -0.6223948885785517 2.3478414965824372 -1.9632180049792911
atom 68.1586387639323306 19.9294302460395940 8.9532320295196914 Se
    velocity 0.4076104145773046 -0.9809389497209370 0.2272292472039397
atom 9.9860094894972526 24.1250997715216116 8.9532320295196914 Se
    velocity 2.7286209076032613 -0.7004345812384829 0.8450280144581626
atom 21.6205353443842654 24.1250997715216116 8.9532320295196914 Se
    velocity -0.3046714764235490 1.5191171440921589 1.2844031927357646
atom 33.2550611992712817 24.1250997715216116 8.9532320295196914 Se
    velocity 1.4501419255954617 -2.0387612673714988 3.1321380640640020
atom 44.8895870541582980 24.1250997715216116 8.9532320295196914 Se
    velocity -1.4175826882759457 1.3259484628469946 -0.4801817849133377
atom 56.5241129090453143 24.1250997715216116 8.9532320295196914 Se
    velocity 0.9646425791664597 -1.9710618750975339 0.6631382790442073
atom 68.1586387639323306 24.1250997715216116 8.9532320295196914 Se
    velocity 1.4010424601241163 -1.8121946550810761 -2.1903660801263878
atom 9.9860094894972526 28.3207692970036362 8.9532320295196914 Se
    velocity -0.8262579339790462 1.7140769836069312 -1.9779375808993938
atom 21.6205353443842654 28.3207692970036362 8.9532320295196914 Se
    velocity 1.2956720224517564 0.3562429028149681 0.9737367331073717
atom 33.2550611992712817 28.3207692970036362 8.9532320295196914 Se
    velocity 0.8148980262498623 -3.6185441688979170 -1.9993658330445505
atom 44.8895870541582980 28.3207692970036362 8.9532320295196914 Se
    velocity -0.9543229303619879 1.9712571199361839 0.5655181800345312
atom 56.5241129090453143 28.3207692970036362 8.9532320295196914 Se
    velocity -0.4601828730249275 1.7134036211883379 0.6080357079063877
atom 68.1586387639323306 28.3207692970036362 8.9532320295196914 Se
    velocity 1.8548161093867612 -0.0399325862168815 2.6112098312671721
atom 9.9860094894972526 32.5164388224856538 8.9532320295196914 Se
    velocity -0.6358938931731735 -1.0961598222069187 2.2646697676378982
atom 21.6205353443842654 32.5164388224856538 8.9532320295196914 Se
    velocity 3.3320766746886004 0.8597486412128548 -0.6026153265108504
atom 33.2550611992712817 32.5164388224856538 8.9532320295196914 Se
    velocity -0.6248245853120186 -1.6751893151785295 3.2838788802351635
atom 44.8895870541582980 32.5164388224856538 8.9532320295196914 Se
    velocity 2.0345493681134177 -0.8154129819996798 0.1402923498955797
atom 56.5241129090453143 32.5164388224856538 8.9532320295196914 Se
    velocity -2.7539425514092106 -0.3307794060883796 0.5700756702702303
atom 68.1586387639323306 32.5164388224856538 8.9532320295196914 Se
    velocity -6.1364357683552004 0.2417125577203592 3.9353639583792250
atom 9.9860094894972526 36.7121083479676713 8.9532320295196914 Se
    velocity 0.3239594807353949 -1.5532415108587048 0.0983498747213101
atom 21.6205353443842654 36.7121083479676713 8.9532320295196914 Se
    velocity -1.9176506379299014 2.1045441228251787 0.4262341405011663
atom 33.2550611992712817 36.7121083479676713 8.9532320295196914 Se
    velocity 0.2896306428428947 0.4180174332557384 0.1074755481229544
atom 44.8895870541582980 36.7121083479676713 8.9532320295196914 Se
    velocity -1.1869578414279072 -1.1004124684001411 -1.4882497319026835
atom 56.5241129090453143 36.7121083479676713 8.9532320295196914 Se
    velocity 0.3921709593756061 -1.0090835789636341 0.9721428570557024
atom 68.1586387639323306 36.7121083479676713 8.9532320295196914 Se
    velocity -1.5856177981805530 -1.4256590436467951 -0.7802128958289316
atom 9.9860094894972526 40.9077778734496960 8.9532320295196914 Se
    velocity 0.3475106462625993 0.2055815632549632 0.5468192496751353
atom 21.6205353443842654 40.9077778734496960 8.9532320295196914 Se
    velocity -0.5596162321848518 -0.5850042639883153 2.5683308253588422
atom 33.2550611992712817 40.9077778734496960 8.9532320295196914 Se
    velocity -1.9898870493997241 -0.9039960419770690 -1.8012125622907222
atom 44.8895870541582980 40.9077778734496960 8.9532320295196914 Se
    velocity -2.6365158012510905 0.8346182785670847 1.5715826977215497
atom 56.5241129090453143 40.9077778734496960 8.9532320295196914 Se
    velocity -2.1635407779740587 0.7423292351650701 -0.3885518219779353
atom 68.1586387639323306 40.9077778734496960 8.9532320295196914 Se
    velocity -0.4992046557909768 3.6467575468827143 1.2216241845353069
atom 9.9860094894972526 45.1034473989317135 8.9532320295196914 Se
    velocity -1.9670263889090860 1.8131108855391551 -1.2368808025187656
atom 21.6205353443842654 45.1034473989317135 8.9532320295196914 Se
    velocity 0.2173157729164331 -3.7391618429807982 -0.1442812557015187
atom 33.2550611992712817 45.1034473989317135 8.9532320295196914 Se
    velocity -2.3255979821354313 0.9734747689162128 1.1601624621102196
atom 44.8895870541582980 45.1034473989317135 8.9532320295196914 Se
    velocity 0.3752641987585634 -1.3047401773905043 -1.5452680024171741
atom 56.5241129090453143 45.1034473989317135 8.9532320295196914 Se
    velocity 5.0445560936678850 -1.9279710368653580 -0.9698107996713088
atom 68.1586387639323306 45.1034473989317135 8.9532320295196914 Se
    velocity -1.4022562617336336 0.6119400739147711 -0.0413528150093797
atom 9.9860094894972526 49.2991169244137311 8.9532320295196914 Se
    velocity 0.7824330619770832 -1.3210813381629332 -2.0231344351447849
atom 21.6205353443842654 49.2991169244137311 8.9532320295196914 Se