#=======================================================
# FHI-aims file: geometry.in.primitive.supercell_6912
# Created using the Atomic Simulation Environment (ASE)
# Thu Apr 13 11:16:31 2023

# Additional information:
#  Number of atoms:     6912
#  Spacegroup:          62
#  supercell:           True
#  supercell_matrix:    [6, 0, 0, 0, 12, 0, 0, 0, 12]
#  Supercell matrix:    [ 6  0  0  0 12  0  0  0 12]
#=======================================================
lattice_vector 69.8071551293221120 0.0000000000000000 0.0000000000000000 
lattice_vector 0.0000000000000000 50.3480343057842390 0.0000000000000000 
lattice_vector 0.0000000000000000 0.0000000000000000 52.8506582996041203 
atom_frac 0.1430513744758334 0.0625000000000000 0.0027395870599167 Se
atom_frac 0.3097180411425000 0.0625000000000000 0.0027395870599167 Se
atom_frac 0.4763847078091666 0.0625000000000000 0.0027395870599167 Se
atom_frac 0.6430513744758333 0.0625000000000000 0.0027395870599167 Se
atom_frac 0.8097180411424999 0.0625000000000000 0.0027395870599167 Se
atom_frac 0.9763847078091665 0.0625000000000000 0.0027395870599167 Se
atom_frac 0.1430513744758334 0.1458333333333333 0.0027395870599167 Se
atom_frac 0.3097180411425000 0.1458333333333333 0.0027395870599167 Se
atom_frac 0.4763847078091666 0.1458333333333333 0.0027395870599167 Se
atom_frac 0.6430513744758333 0.1458333333333333 0.0027395870599167 Se
atom_frac 0.8097180411424999 0.1458333333333333 0.0027395870599167 Se
atom_frac 0.9763847078091665 0.1458333333333333 0.0027395870599167 Se
atom_frac 0.1430513744758334 0.2291666666666666 0.0027395870599167 Se
atom_frac 0.3097180411425000 0.2291666666666666 0.0027395870599167 Se
atom_frac 0.4763847078091666 0.2291666666666666 0.0027395870599167 Se
atom_frac 0.6430513744758333 0.2291666666666666 0.0027395870599167 Se
atom_frac 0.8097180411424999 0.2291666666666666 0.0027395870599167 Se
atom_frac 0.9763847078091665 0.2291666666666666 0.0027395870599167 Se
atom_frac 0.1430513744758334 0.3125000000000000 0.0027395870599167 Se
atom_frac 0.3097180411425000 0.3125000000000000 0.0027395870599167 Se
atom_frac 0.4763847078091666 0.3125000000000000 0.0027395870599167 Se
atom_frac 0.6430513744758333 0.3125000000000000 0.0027395870599167 Se
atom_frac 0.8097180411424999 0.3125000000000000 0.0027395870599167 Se
atom_frac 0.9763847078091665 0.3125000000000000 0.0027395870599167 Se
atom_frac 0.1430513744758334 0.3958333333333333 0.0027395870599167 Se
atom_frac 0.3097180411425000 0.3958333333333333 0.0027395870599167 Se
atom_frac 0.4763847078091666 0.3958333333333333 0.0027395870599167 Se
atom_frac 0.6430513744758333 0.3958333333333333 0.0027395870599167 Se
atom_frac 0.8097180411424999 0.3958333333333333 0.0027395870599167 Se
atom_frac 0.9763847078091665 0.3958333333333333 0.0027395870599167 Se
atom_frac 0.1430513744758334 0.4791666666666666 0.0027395870599167 Se
atom_frac 0.3097180411425000 0.4791666666666666 0.0027395870599167 Se
atom_frac 0.4763847078091666 0.4791666666666666 0.0027395870599167 Se
atom_frac 0.6430513744758333 0.4791666666666666 0.0027395870599167 Se
atom_frac 0.8097180411424999 0.4791666666666666 0.0027395870599167 Se
atom_frac 0.9763847078091665 0.4791666666666666 0.0027395870599167 Se
atom_frac 0.1430513744758334 0.5625000000000000 0.0027395870599167 Se
atom_frac 0.3097180411425000 0.5625000000000000 0.0027395870599167 Se
atom_frac 0.4763847078091666 0.5625000000000000 0.0027395870599167 Se
atom_frac 0.6430513744758333 0.5625000000000000 0.0027395870599167 Se
atom_frac 0.8097180411424999 0.5625000000000000 0.0027395870599167 Se
atom_frac 0.9763847078091665 0.5625000000000000 0.0027395870599167 Se
atom_frac 0.1430513744758334 0.6458333333333333 0.0027395870599167 Se
atom_frac 0.3097180411425000 0.6458333333333333 0.0027395870599167 Se
atom_frac 0.4763847078091666 0.6458333333333333 0.0027395870599167 Se
atom_frac 0.6430513744758333 0.6458333333333333 0.0027395870599167 Se
atom_frac 0.8097180411424999 0.6458333333333333 0.0027395870599167 Se
atom_frac 0.9763847078091665 0.6458333333333333 0.0027395870599167 Se
atom_frac 0.1430513744758334 0.7291666666666666 0.0027395870599167 Se
atom_frac 0.3097180411425000 0.7291666666666666 0.0027395870599167 Se
atom_frac 0.4763847078091666 0.7291666666666666 0.0027395870599167 Se
atom_frac 0.6430513744758333 0.7291666666666666 0.0027395870599167 Se
atom_frac 0.8097180411424999 0.7291666666666666 0.0027395870599167 Se
atom_frac 0.9763847078091665 0.7291666666666666 0.0027395870599167 Se
atom_frac 0.1430513744758334 0.8125000000000000 0.0027395870599167 Se
atom_frac 0.3097180411425000 0.8125000000000000 0.0027395870599167 Se
atom_frac 0.4763847078091666 0.8125000000000000 0.0027395870599167 Se
atom_frac 0.6430513744758333 0.8125000000000000 0.0027395870599167 Se
atom_frac 0.8097180411424999 0.8125000000000000 0.0027395870599167 Se
atom_frac 0.9763847078091665 0.8125000000000000 0.0027395870599167 Se
atom_frac 0.1430513744758334 0.8958333333333333 0.0027395870599167 Se
atom_frac 0.3097180411425000 0.8958333333333333 0.0027395870599167 Se
atom_frac 0.4763847078091666 0.8958333333333333 0.0027395870599167 Se
atom_frac 0.6430513744758333 0.8958333333333333 0.0027395870599167 Se
atom_frac 0.8097180411424999 0.8958333333333333 0.0027395870599167 Se
atom_frac 0.9763847078091665 0.8958333333333333 0.0027395870599167 Se
atom_frac 0.1430513744758334 0.9791666666666666 0.0027395870599167 Se
atom_frac 0.3097180411425000 0.9791666666666666 0.0027395870599167 Se
atom_frac 0.4763847078091666 0.9791666666666666 0.0027395870599167 Se
atom_frac 0.6430513744758333 0.9791666666666666 0.0027395870599167 Se
atom_frac 0.8097180411424999 0.9791666666666666 0.0027395870599167 Se
atom_frac 0.9763847078091665 0.9791666666666666 0.0027395870599167 Se
atom_frac 0.1430513744758334 0.0625000000000000 0.0860729203932500 Se
atom_frac 0.3097180411425000 0.0625000000000000 0.0860729203932500 Se
atom_frac 0.4763847078091666 0.0625000000000000 0.0860729203932500 Se
atom_frac 0.6430513744758333 0.0625000000000000 0.0860729203932500 Se
atom_frac 0.8097180411424999 0.0625000000000000 0.0860729203932500 Se
atom_frac 0.9763847078091665 0.0625000000000000 0.0860729203932500 Se
atom_frac 0.1430513744758334 0.1458333333333333 0.0860729203932500 Se
atom_frac 0.3097180411425000 0.1458333333333333 0.0860729203932500 Se
atom_frac 0.4763847078091666 0.1458333333333333 0.0860729203932500 Se
atom_frac 0.6430513744758333 0.1458333333333333 0.0860729203932500 Se
atom_frac 0.8097180411424999 0.1458333333333333 0.0860729203932500 Se
atom_frac 0.9763847078091665 0.1458333333333333 0.0860729203932500 Se
atom_frac 0.1430513744758334 0.2291666666666666 0.0860729203932500 Se
atom_frac 0.3097180411425000 0.2291666666666666 0.0860729203932500 Se
atom_frac 0.4763847078091666 0.2291666666666666 0.0860729203932500 Se
atom_frac 0.6430513744758333 0.2291666666666666 0.0860729203932500 Se
atom_frac 0.8097180411424999 0.2291666666666666 0.0860729203932500 Se
atom_frac 0.9763847078091665 0.2291666666666666 0.0860729203932500 Se
atom_frac 0.1430513744758334 0.3125000000000000 0.0860729203932500 Se
atom_frac 0.3097180411425000 0.3125000000000000 0.0860729203932500 Se
atom_frac 0.4763847078091666 0.3125000000000000 0.0860729203932500 Se
atom_frac 0.6430513744758333 0.3125000000000000 0.0860729203932500 Se
atom_frac 0.8097180411424999 0.3125000000000000 0.0860729203932500 Se
atom_frac 0.9763847078091665 0.3125000000000000 0.0860729203932500 Se
atom_frac 0.1430513744758334 0.3958333333333333 0.0860729203932500 Se
atom_frac 0.3097180411425000 0.3958333333333333 0.0860729203932500 Se
atom_frac 0.4763847078091666 0.3958333333333333 0.0860729203932500 Se
atom_frac 0.6430513744758333 0.3958333333333333 0.0860729203932500 Se
atom_frac 0.8097180411424999 0.3958333333333333 0.0860729203932500 Se
atom_frac 0.9763847078091665 0.3958333333333333 0.0860729203932500 Se
atom_frac 0.1430513744758334 0.4791666666666666 0.0860729203932500 Se
atom_frac 0.3097180411425000 0.4791666666666666 0.0860729203932500 Se
atom_frac 0.4763847078091666 0.4791666666666666 0.0860729203932500 Se
atom_frac 0.6430513744758333 0.4791666666666666 0.0860729203932500 Se
atom_frac 0.8097180411424999 0.4791666666666666 0.0860729203932500 Se
atom_frac 0.9763847078091665 0.4791666666666666 0.0860729203932500 Se
atom_frac 0.1430513744758334 0.5625000000000000 0.0860729203932500 Se
atom_frac 0.3097180411425000 0.5625000000000000 0.0860729203932500 Se
atom_frac 0.4763847078091666 0.5625000000000000 0.0860729203932500 Se
atom_frac 0.6430513744758333 0.5625000000000000 0.0860729203932500 Se
atom_frac 0.8097180411424999 0.5625000000000000 0.0860729203932500 Se
atom_frac 0.9763847078091665 0.5625000000000000 0.0860729203932500 Se
atom_frac 0.1430513744758334 0.6458333333333333 0.0860729203932500 Se
atom_frac 0.3097180411425000 0.6458333333333333 0.0860729203932500 Se
atom_frac 0.4763847078091666 0.6458333333333333 0.0860729203932500 Se
atom_frac 0.6430513744758333 0.6458333333333333 0.0860729203932500 Se
atom_frac 0.8097180411424999 0.6458333333333333 0.0860729203932500 Se
atom_frac 0.9763847078091665 0.6458333333333333 0.0860729203932500 Se
atom_frac 0.1430513744758334 0.7291666666666666 0.0860729203932500 Se
atom_frac 0.3097180411425000 0.7291666666666666 0.0860729203932500 Se
atom_frac 0.4763847078091666 0.7291666666666666 0.0860729203932500 Se
atom_frac 0.6430513744758333 0.7291666666666666 0.0860729203932500 Se
atom_frac 0.8097180411424999 0.7291666666666666 0.0860729203932500 Se
atom_frac 0.9763847078091665 0.7291666666666666 0.0860729203932500 Se
atom_frac 0.1430513744758334 0.8125000000000000 0.0860729203932500 Se
atom_frac 0.3097180411425000 0.8125000000000000 0.0860729203932500 Se
atom_frac 0.4763847078091666 0.8125000000000000 0.0860729203932500 Se
atom_frac 0.6430513744758333 0.8125000000000000 0.0860729203932500 Se
atom_frac 0.8097180411424999 0.8125000000000000 0.0860729203932500 Se
atom_frac 0.9763847078091665 0.8125000000000000 0.0860729203932500 Se
atom_frac 0.1430513744758334 0.8958333333333333 0.0860729203932500 Se
atom_frac 0.3097180411425000 0.8958333333333333 0.0860729203932500 Se
atom_frac 0.4763847078091666 0.8958333333333333 0.0860729203932500 Se
atom_frac 0.6430513744758333 0.8958333333333333 0.0860729203932500 Se
atom_frac 0.8097180411424999 0.8958333333333333 0.0860729203932500 Se
atom_frac 0.9763847078091665 0.8958333333333333 0.0860729203932500 Se
atom_frac 0.1430513744758334 0.9791666666666666 0.0860729203932500 Se
atom_frac 0.3097180411425000 0.9791666666666666 0.0860729203932500 Se
atom_frac 0.4763847078091666 0.9791666666666666 0.0860729203932500 Se
atom_frac 0.6430513744758333 0.9791666666666666 0.0860729203932500 Se
atom_frac 0.8097180411424999 0.9791666666666666 0.0860729203932500 Se
atom_frac 0.9763847078091665 0.9791666666666666 0.0860729203932500 Se
atom_frac 0.1430513744758334 0.0625000000000000 0.1694062537265833 Se
atom_frac 0.3097180411425000 0.0625000000000000 0.1694062537265833 Se
atom_frac 0.4763847078091666 0.0625000000000000 0.1694062537265833 Se
atom_frac 0.6430513744758333 0.0625000000000000 0.1694062537265833 Se
atom_frac 0.8097180411424999 0.0625000000000000 0.1694062537265833 Se
atom_frac 0.9763847078091665 0.0625000000000000 0.1694062537265833 Se
atom_frac 0.1430513744758334 0.1458333333333333 0.1694062537265833 Se
atom_frac 0.3097180411425000 0.1458333333333333 0.1694062537265833 Se
atom_frac 0.4763847078091666 0.1458333333333333 0.1694062537265833 Se
atom_frac 0.6430513744758333 0.1458333333333333 0.1694062537265833 Se
atom_frac 0.8097180411424999 0.1458333333333333 0.1694062537265833 Se
atom_frac 0.9763847078091665 0.1458333333333333 0.1694062537265833 Se
atom_frac 0.1430513744758334 0.2291666666666666 0.1694062537265833 Se
atom_frac 0.3097180411425000 0.2291666666666666 0.1694062537265833 Se
atom_frac 0.4763847078091666 0.2291666666666666 0.1694062537265833 Se
atom_frac 0.6430513744758333 0.2291666666666666 0.1694062537265833 Se
atom_frac 0.8097180411424999 0.2291666666666666 0.1694062537265833 Se
atom_frac 0.9763847078091665 0.2291666666666666 0.1694062537265833 Se
atom_frac 0.1430513744758334 0.3125000000000000 0.1694062537265833 Se
atom_frac 0.3097180411425000 0.3125000000000000 0.1694062537265833 Se
atom_frac 0.4763847078091666 0.3125000000000000 0.1694062537265833 Se
atom_frac 0.6430513744758333 0.3125000000000000 0.1694062537265833 Se
atom_frac 0.8097180411424999 0.3125000000000000 0.1694062537265833 Se
atom_frac 0.9763847078091665 0.3125000000000000 0.1694062537265833 Se
atom_frac 0.1430513744758334 0.3958333333333333 0.1694062537265833 Se
atom_frac 0.3097180411425000 0.3958333333333333 0.1694062537265833 Se
atom_frac 0.4763847078091666 0.3958333333333333 0.1694062537265833 Se
atom_frac 0.6430513744758333 0.3958333333333333 0.1694062537265833 Se
atom_frac 0.8097180411424999 0.3958333333333333 0.1694062537265833 Se
atom_frac 0.9763847078091665 0.3958333333333333 0.1694062537265833 Se
atom_frac 0.1430513744758334 0.4791666666666666 0.1694062537265833 Se
atom_frac 0.3097180411425000 0.4791666666666666 0.1694062537265833 Se
atom_frac 0.4763847078091666 0.4791666666666666 0.1694062537265833 Se
atom_frac 0.6430513744758333 0.4791666666666666 0.1694062537265833 Se
atom_frac 0.8097180411424999 0.4791666666666666 0.1694062537265833 Se
atom_frac 0.9763847078091665 0.4791666666666666 0.1694062537265833 Se
atom_frac 0.1430513744758334 0.5625000000000000 0.1694062537265833 Se
atom_frac 0.3097180411425000 0.5625000000000000 0.1694062537265833 Se
atom_frac 0.4763847078091666 0.5625000000000000 0.1694062537265833 Se
atom_frac 0.6430513744758333 0.5625000000000000 0.1694062537265833 Se
atom_frac 0.8097180411424999 0.5625000000000000 0.1694062537265833 Se
atom_frac 0.9763847078091665 0.5625000000000000 0.1694062537265833 Se
atom_frac 0.1430513744758334 0.6458333333333333 0.1694062537265833 Se
atom_frac 0.3097180411425000 0.6458333333333333 0.1694062537265833 Se
atom_frac 0.4763847078091666 0.6458333333333333 0.1694062537265833 Se
atom_frac 0.6430513744758333 0.6458333333333333 0.1694062537265833 Se
atom_frac 0.8097180411424999 0.6458333333333333 0.1694062537265833 Se
atom_frac 0.9763847078091665 0.6458333333333333 0.1694062537265833 Se
atom_frac 0.1430513744758334 0.7291666666666666 0.1694062537265833 Se
atom_frac 0.3097180411425000 0.7291666666666666 0.1694062537265833 Se
atom_frac 0.4763847078091666 0.7291666666666666 0.1694062537265833 Se
atom_frac 0.6430513744758333 0.7291666666666666 0.1694062537265833 Se
atom_frac 0.8097180411424999 0.7291666666666666 0.1694062537265833 Se
atom_frac 0.9763847078091665 0.7291666666666666 0.1694062537265833 Se
atom_frac 0.1430513744758334 0.8125000000000000 0.1694062537265833 Se
atom_frac 0.3097180411425000 0.8125000000000000 0.1694062537265833 Se
atom_frac 0.4763847078091666 0.8125000000000000 0.1694062537265833 Se
atom_frac 0.6430513744758333 0.8125000000000000 0.1694062537265833 Se
atom_frac 0.8097180411424999 0.8125000000000000 0.1694062537265833 Se
atom_frac 0.9763847078091665 0.8125000000000000 0.1694062537265833 Se
atom_frac 0.1430513744758334 0.8958333333333333 0.1694062537265833 Se
atom_frac 0.3097180411425000 0.8958333333333333 0.1694062537265833 Se
atom_frac 0.4763847078091666 0.8958333333333333 0.1694062537265833 Se
atom_frac 0.6430513744758333 0.8958333333333333 0.1694062537265833 Se
atom_frac 0.8097180411424999 0.8958333333333333 0.1694062537265833 Se
atom_frac 0.9763847078091665 0.8958333333333333 0.1694062537265833 Se
atom_frac 0.1430513744758334 0.9791666666666666 0.1694062537265833 Se
atom_frac 0.3097180411425000 0.9791666666666666 0.1694062537265833 Se
atom_frac 0.4763847078091666 0.9791666666666666 0.1694062537265833 Se
atom_frac 0.6430513744758333 0.9791666666666666 0.1694062537265833 Se
atom_frac 0.8097180411424999 0.9791666666666666 0.1694062537265833 Se
atom_frac 0.9763847078091665 0.9791666666666666 0.1694062537265833 Se
atom_frac 0.1430513744758334 0.0625000000000000 0.2527395870599166 Se
atom_frac 0.3097180411425000 0.0625000000000000 0.2527395870599166 Se
atom_frac 0.4763847078091666 0.0625000000000000 0.2527395870599166 Se
atom_frac 0.6430513744758333 0.0625000000000000 0.2527395870599166 Se
atom_frac 0.8097180411424999 0.0625000000000000 0.2527395870599166 Se
atom_frac 0.9763847078091665 0.0625000000000000 0.2527395870599166 Se
atom_frac 0.1430513744758334 0.1458333333333333 0.2527395870599166 Se
atom_frac 0.3097180411425000 0.1458333333333333 0.2527395870599166 Se
atom_frac 0.4763847078091666 0.1458333333333333 0.2527395870599166 Se
atom_frac 0.6430513744758333 0.1458333333333333 0.2527395870599166 Se
atom_frac 0.8097180411424999 0.1458333333333333 0.2527395870599166 Se
atom_frac 0.9763847078091665 0.1458333333333333 0.2527395870599166 Se
atom_frac 0.1430513744758334 0.2291666666666666 0.2527395870599166 Se
atom_frac 0.3097180411425000 0.2291666666666666 0.2527395870599166 Se
atom_frac 0.4763847078091666 0.2291666666666666 0.2527395870599166 Se
atom_frac 0.6430513744758333 0.2291666666666666 0.2527395870599166 Se
atom_frac 0.8097180411424999 0.2291666666666666 0.2527395870599166 Se
atom_frac 0.9763847078091665 0.2291666666666666 0.2527395870599166 Se
atom_frac 0.1430513744758334 0.3125000000000000 0.2527395870599166 Se
atom_frac 0.3097180411425000 0.3125000000000000 0.2527395870599166 Se
atom_frac 0.4763847078091666 0.3125000000000000 0.2527395870599166 Se
atom_frac 0.6430513744758333 0.3125000000000000 0.2527395870599166 Se
atom_frac 0.8097180411424999 0.3125000000000000 0.2527395870599166 Se
atom_frac 0.9763847078091665 0.3125000000000000 0.2527395870599166 Se
atom_frac 0.1430513744758334 0.3958333333333333 0.2527395870599166 Se
atom_frac 0.3097180411425000 0.3958333333333333 0.2527395870599166 Se
atom_frac 0.4763847078091666 0.3958333333333333 0.2527395870599166 Se
atom_frac 0.6430513744758333 0.3958333333333333 0.2527395870599166 Se
atom_frac 0.8097180411424999 0.3958333333333333 0.2527395870599166 Se
atom_frac 0.9763847078091665 0.3958333333333333 0.2527395870599166 Se
atom_frac 0.1430513744758334 0.4791666666666666 0.2527395870599166 Se
atom_frac 0.3097180411425000 0.4791666666666666 0.2527395870599166 Se
atom_frac 0.4763847078091666 0.4791666666666666 0.2527395870599166 Se
atom_frac 0.6430513744758333 0.4791666666666666 0.2527395870599166 Se
atom_frac 0.8097180411424999 0.4791666666666666 0.2527395870599166 Se
atom_frac 0.9763847078091665 0.4791666666666666 0.2527395870599166 Se
atom_frac 0.1430513744758334 0.5625000000000000 0.2527395870599166 Se
atom_frac 0.3097180411425000 0.5625000000000000 0.2527395870599166 Se
atom_frac 0.4763847078091666 0.5625000000000000 0.2527395870599166 Se
atom_frac 0.6430513744758333 0.5625000000000000 0.2527395870599166 Se
atom_frac 0.8097180411424999 0.5625000000000000 0.2527395870599166 Se
atom_frac 0.9763847078091665 0.5625000000000000 0.2527395870599166 Se
atom_frac 0.1430513744758334 0.6458333333333333 0.2527395870599166 Se
atom_frac 0.3097180411425000 0.6458333333333333 0.2527395870599166 Se
atom_frac 0.4763847078091666 0.6458333333333333 0.2527395870599166 Se
atom_frac 0.6430513744758333 0.6458333333333333 0.2527395870599166 Se
atom_frac 0.8097180411424999 0.6458333333333333 0.2527395870599166 Se
atom_frac 0.9763847078091665 0.6458333333333333 0.2527395870599166 Se
atom_frac 0.1430513744758334 0.7291666666666666 0.2527395870599166 Se
atom_frac 0.3097180411425000 0.7291666666666666 0.2527395870599166 Se
atom_frac 0.4763847078091666 0.7291666666666666 0.2527395870599166 Se
atom_frac 0.6430513744758333 0.7291666666666666 0.2527395870599166 Se
atom_frac 0.8097180411424999 0.7291666666666666 0.2527395870599166 Se
atom_frac 0.9763847078091665 0.7291666666666666 0.2527395870599166 Se
atom_frac 0.1430513744758334 0.8125000000000000 0.2527395870599166 Se
atom_frac 0.3097180411425000 0.8125000000000000 0.2527395870599166 Se
atom_frac 0.4763847078091666 0.8125000000000000 0.2527395870599166 Se
atom_frac 0.6430513744758333 0.8125000000000000 0.2527395870599166 Se
atom_frac 0.8097180411424999 0.8125000000000000 0.2527395870599166 Se
atom_frac 0.9763847078091665 0.8125000000000000 0.2527395870599166 Se
atom_frac 0.1430513744758334 0.8958333333333333 0.2527395870599166 Se
atom_frac 0.3097180411425000 0.8958333333333333 0.2527395870599166 Se
atom_frac 0.4763847078091666 0.8958333333333333 0.2527395870599166 Se
atom_frac 0.6430513744758333 0.8958333333333333 0.2527395870599166 Se
atom_frac 0.8097180411424999 0.8958333333333333 0.2527395870599166 Se
atom_frac 0.9763847078091665 0.8958333333333333 0.2527395870599166 Se
atom_frac 0.1430513744758334 0.9791666666666666 0.2527395870599166 Se
atom_frac 0.3097180411425000 0.9791666666666666 0.2527395870599166 Se
atom_frac 0.4763847078091666 0.9791666666666666 0.2527395870599166 Se
atom_frac 0.6430513744758333 0.9791666666666666 0.2527395870599166 Se
atom_frac 0.8097180411424999 0.9791666666666666 0.2527395870599166 Se
atom_frac 0.9763847078091665 0.9791666666666666 0.2527395870599166 Se
atom_frac 0.1430513744758334 0.0625000000000000 0.3360729203932500 Se
atom_frac 0.3097180411425000 0.0625000000000000 0.3360729203932500 Se
atom_frac 0.4763847078091666 0.0625000000000000 0.3360729203932500 Se
atom_frac 0.6430513744758333 0.0625000000000000 0.3360729203932500 Se
atom_frac 0.8097180411424999 0.0625000000000000 0.3360729203932500 Se
atom_frac 0.9763847078091665 0.0625000000000000 0.3360729203932500 Se
atom_frac 0.1430513744758334 0.1458333333333333 0.3360729203932500 Se
atom_frac 0.3097180411425000 0.1458333333333333 0.3360729203932500 Se
atom_frac 0.4763847078091666 0.1458333333333333 0.3360729203932500 Se
atom_frac 0.6430513744758333 0.1458333333333333 0.3360729203932500 Se
atom_frac 0.8097180411424999 0.1458333333333333 0.3360729203932500 Se
atom_frac 0.9763847078091665 0.1458333333333333 0.3360729203932500 Se
atom_frac 0.1430513744758334 0.2291666666666666 0.3360729203932500 Se
atom_frac 0.3097180411425000 0.2291666666666666 0.3360729203932500 Se
atom_frac 0.4763847078091666 0.2291666666666666 0.3360729203932500 Se
atom_frac 0.6430513744758333 0.2291666666666666 0.3360729203932500 Se
atom_frac 0.8097180411424999 0.2291666666666666 0.3360729203932500 Se
atom_frac 0.9763847078091665 0.2291666666666666 0.3360729203932500 Se
atom_frac 0.1430513744758334 0.3125000000000000 0.3360729203932500 Se
atom_frac 0.3097180411425000 0.3125000000000000 0.3360729203932500 Se
atom_frac 0.4763847078091666 0.3125000000000000 0.3360729203932500 Se
atom_frac 0.6430513744758333 0.3125000000000000 0.3360729203932500 Se
atom_frac 0.8097180411424999 0.3125000000000000 0.3360729203932500 Se
atom_frac 0.9763847078091665 0.3125000000000000 0.3360729203932500 Se
atom_frac 0.1430513744758334 0.3958333333333333 0.3360729203932500 Se
atom_frac 0.3097180411425000 0.3958333333333333 0.3360729203932500 Se
atom_frac 0.4763847078091666 0.3958333333333333 0.3360729203932500 Se
atom_frac 0.6430513744758333 0.3958333333333333 0.3360729203932500 Se
atom_frac 0.8097180411424999 0.3958333333333333 0.3360729203932500 Se
atom_frac 0.9763847078091665 0.3958333333333333 0.3360729203932500 Se
atom_frac 0.1430513744758334 0.4791666666666666 0.3360729203932500 Se
atom_frac 0.3097180411425000 0.4791666666666666 0.3360729203932500 Se
atom_frac 0.4763847078091666 0.4791666666666666 0.3360729203932500 Se
atom_frac 0.6430513744758333 0.4791666666666666 0.3360729203932500 Se
atom_frac 0.8097180411424999 0.4791666666666666 0.3360729203932500 Se
atom_frac 0.9763847078091665 0.4791666666666666 0.3360729203932500 Se
atom_frac 0.1430513744758334 0.5625000000000000 0.3360729203932500 Se
atom_frac 0.3097180411425000 0.5625000000000000 0.3360729203932500 Se
atom_frac 0.4763847078091666 0.5625000000000000 0.3360729203932500 Se
atom_frac 0.6430513744758333 0.5625000000000000 0.3360729203932500 Se
atom_frac 0.8097180411424999 0.5625000000000000 0.3360729203932500 Se
atom_frac 0.9763847078091665 0.5625000000000000 0.3360729203932500 Se
atom_frac 0.1430513744758334 0.6458333333333333 0.3360729203932500 Se
atom_frac 0.3097180411425000 0.6458333333333333 0.3360729203932500 Se
atom_frac 0.4763847078091666 0.6458333333333333 0.3360729203932500 Se
atom_frac 0.6430513744758333 0.6458333333333333 0.3360729203932500 Se
atom_frac 0.8097180411424999 0.6458333333333333 0.3360729203932500 Se
atom_frac 0.9763847078091665 0.6458333333333333 0.3360729203932500 Se
atom_frac 0.1430513744758334 0.7291666666666666 0.3360729203932500 Se
atom_frac 0.3097180411425000 0.7291666666666666 0.3360729203932500 Se
atom_frac 0.4763847078091666 0.7291666666666666 0.3360729203932500 Se
atom_frac 0.6430513744758333 0.7291666666666666 0.3360729203932500 Se
atom_frac 0.8097180411424999 0.7291666666666666 0.3360729203932500 Se
atom_frac 0.9763847078091665 0.7291666666666666 0.3360729203932500 Se
atom_frac 0.1430513744758334 0.8125000000000000 0.3360729203932500 Se
atom_frac 0.3097180411425000 0.8125000000000000 0.3360729203932500 Se
atom_frac 0.4763847078091666 0.8125000000000000 0.3360729203932500 Se
atom_frac 0.6430513744758333 0.8125000000000000 0.3360729203932500 Se
atom_frac 0.8097180411424999 0.8125000000000000 0.3360729203932500 Se
atom_frac 0.9763847078091665 0.8125000000000000 0.3360729203932500 Se
atom_frac 0.1430513744758334 0.8958333333333333 0.3360729203932500 Se
atom_frac 0.3097180411425000 0.8958333333333333 0.3360729203932500 Se
atom_frac 0.4763847078091666 0.8958333333333333 0.3360729203932500 Se
atom_frac 0.6430513744758333 0.8958333333333333 0.3360729203932500 Se
atom_frac 0.8097180411424999 0.8958333333333333 0.3360729203932500 Se
atom_frac 0.9763847078091665 0.8958333333333333 0.3360729203932500 Se
atom_frac 0.1430513744758334 0.9791666666666666 0.3360729203932500 Se
atom_frac 0.3097180411425000 0.9791666666666666 0.3360729203932500 Se
atom_frac 0.4763847078091666 0.9791666666666666 0.3360729203932500 Se
atom_frac 0.6430513744758333 0.9791666666666666 0.3360729203932500 Se
atom_frac 0.8097180411424999 0.9791666666666666 0.3360729203932500 Se
atom_frac 0.9763847078091665 0.9791666666666666 0.3360729203932500 Se
atom_frac 0.1430513744758334 0.0625000000000000 0.4194062537265833 Se
atom_frac 0.3097180411425000 0.0625000000000000 0.4194062537265833 Se
atom_frac 0.4763847078091666 0.0625000000000000 0.4194062537265833 Se
atom_frac 0.6430513744758333 0.0625000000000000 0.4194062537265833 Se
atom_frac 0.8097180411424999 0.0625000000000000 0.4194062537265833 Se
atom_frac 0.9763847078091665 0.0625000000000000 0.4194062537265833 Se
atom_frac 0.1430513744758334 0.1458333333333333 0.4194062537265833 Se
atom_frac 0.3097180411425000 0.1458333333333333 0.4194062537265833 Se
atom_frac 0.4763847078091666 0.1458333333333333 0.4194062537265833 Se
atom_frac 0.6430513744758333 0.1458333333333333 0.4194062537265833 Se
atom_frac 0.8097180411424999 0.1458333333333333 0.4194062537265833 Se
atom_frac 0.9763847078091665 0.1458333333333333 0.4194062537265833 Se
atom_frac 0.1430513744758334 0.2291666666666666 0.4194062537265833 Se
atom_frac 0.3097180411425000 0.2291666666666666 0.4194062537265833 Se
atom_frac 0.4763847078091666 0.2291666666666666 0.4194062537265833 Se
atom_frac 0.6430513744758333 0.2291666666666666 0.4194062537265833 Se
atom_frac 0.8097180411424999 0.2291666666666666 0.4194062537265833 Se
atom_frac 0.9763847078091665 0.2291666666666666 0.4194062537265833 Se
atom_frac 0.1430513744758334 0.3125000000000000 0.4194062537265833 Se
atom_frac 0.3097180411425000 0.3125000000000000 0.4194062537265833 Se
atom_frac 0.4763847078091666 0.3125000000000000 0.4194062537265833 Se
atom_frac 0.6430513744758333 0.3125000000000000 0.4194062537265833 Se
atom_frac 0.8097180411424999 0.3125000000000000 0.4194062537265833 Se
atom_frac 0.9763847078091665 0.3125000000000000 0.4194062537265833 Se
atom_frac 0.1430513744758334 0.3958333333333333 0.4194062537265833 Se
atom_frac 0.3097180411425000 0.3958333333333333 0.4194062537265833 Se
atom_frac 0.4763847078091666 0.3958333333333333 0.4194062537265833 Se
atom_frac 0.6430513744758333 0.3958333333333333 0.4194062537265833 Se
atom_frac 0.8097180411424999 0.3958333333333333 0.4194062537265833 Se
atom_frac 0.9763847078091665 0.3958333333333333 0.4194062537265833 Se
atom_frac 0.1430513744758334 0.4791666666666666 0.4194062537265833 Se
atom_frac 0.3097180411425000 0.4791666666666666 0.4194062537265833 Se
atom_frac 0.4763847078091666 0.4791666666666666 0.4194062537265833 Se
atom_frac 0.6430513744758333 0.4791666666666666 0.4194062537265833 Se
atom_frac 0.8097180411424999 0.4791666666666666 0.4194062537265833 Se
atom_frac 0.9763847078091665 0.4791666666666666 0.4194062537265833 Se
atom_frac 0.1430513744758334 0.5625000000000000 0.4194062537265833 Se
atom_frac 0.3097180411425000 0.5625000000000000 0.4194062537265833 Se
atom_frac 0.4763847078091666 0.5625000000000000 0.4194062537265833 Se
atom_frac 0.6430513744758333 0.5625000000000000 0.4194062537265833 Se
atom_frac 0.8097180411424999 0.5625000000000000 0.4194062537265833 Se
atom_frac 0.9763847078091665 0.5625000000000000 0.4194062537265833 Se
atom_frac 0.1430513744758334 0.6458333333333333 0.4194062537265833 Se
atom_frac 0.3097180411425000 0.6458333333333333 0.4194062537265833 Se
atom_frac 0.4763847078091666 0.6458333333333333 0.4194062537265833 Se
atom_frac 0.6430513744758333 0.6458333333333333 0.4194062537265833 Se
atom_frac 0.8097180411424999 0.6458333333333333 0.4194062537265833 Se
atom_frac 0.9763847078091665 0.6458333333333333 0.4194062537265833 Se
atom_frac 0.1430513744758334 0.7291666666666666 0.4194062537265833 Se
atom_frac 0.3097180411425000 0.7291666666666666 0.4194062537265833 Se
atom_frac 0.4763847078091666 0.7291666666666666 0.4194062537265833 Se
atom_frac 0.6430513744758333 0.7291666666666666 0.4194062537265833 Se
atom_frac 0.8097180411424999 0.7291666666666666 0.4194062537265833 Se
atom_frac 0.9763847078091665 0.7291666666666666 0.4194062537265833 Se
atom_frac 0.1430513744758334 0.8125000000000000 0.4194062537265833 Se
atom_frac 0.3097180411425000 0.8125000000000000 0.4194062537265833 Se
atom_frac 0.4763847078091666 0.8125000000000000 0.4194062537265833 Se
atom_frac 0.6430513744758333 0.8125000000000000 0.4194062537265833 Se