#=======================================================
# FHI-aims file: /Users/flokno/working/projects/so3krates/dev_SnSe/test_10_EOS_easy/finer/so3krates_L1/eos/011/relaxation/geometry.in.next_step
# Created using the Atomic Simulation Environment (ASE)
# Mon Apr 17 17:09:32 2023

# Additional information:
#  Relaxed with BFGS, fmax=0.100 meV/AA
#  nsteps = 17
#  residual force  = 0.083872 meV/AA
#=======================================================
lattice_vector 11.5775689810239992 -0.0000000000000000 0.0000000000000000 
lattice_vector 0.0000000000000000 4.1862996557879999 0.0000000000000000 
lattice_vector 0.0000000000000000 0.0000000000000000 4.3836582639610002 
atom_frac 0.8586240891619999 0.7500000000000000 0.0331168049030000 Se
atom_frac 0.1413759108380000 0.2500000000000000 0.9668831950969999 Se
atom_frac 0.6413759108380002 0.2500000000000000 0.5331168049030000 Se
atom_frac 0.3586240891620000 0.7500000000000000 0.4668831950969999 Se
atom_frac 0.1206737326610000 0.7500000000000000 0.3984865408420000 Sn
atom_frac 0.8793262673390000 0.2500000000000000 0.6015134591580000 Sn
atom_frac 0.3793262673390000 0.2500000000000000 0.8984865408420000 Sn
atom_frac 0.6206737326610000 0.7500000000000000 0.1015134591580000 Sn
