#=======================================================
# FHI-aims file: /Users/flokno/working/projects/so3krates/dev_SnSe/test_10_EOS_easy/finer/so3krates_L2/eos/008/relaxation/geometry.in.next_step
# Created using the Atomic Simulation Environment (ASE)
# Mon Apr 17 17:14:56 2023

# Additional information:
#  Relaxed with BFGS, fmax=0.100 meV/AA
#  nsteps = 20
#  residual force  = 0.011295 meV/AA
#=======================================================
lattice_vector 11.5428709720900002 -0.0000000000000000 0.0000000000000000 
lattice_vector 0.0000000000000000 4.1737533031740002 0.0000000000000000 
lattice_vector 0.0000000000000000 0.0000000000000000 4.3705204270060003 
atom_frac 0.8585216041160000 0.7500000000000001 0.0318671067050000 Se
atom_frac 0.1414783958840000 0.2500000000000000 0.9681328932950000 Se
atom_frac 0.6414783958840001 0.2500000000000000 0.5318671067050000 Se
atom_frac 0.3585216041160000 0.7500000000000001 0.4681328932950001 Se
atom_frac 0.1198714236490000 0.7500000000000001 0.4011998487610000 Sn
atom_frac 0.8801285763509999 0.2500000000000000 0.5988001512390000 Sn
atom_frac 0.3801285763510001 0.2500000000000000 0.9011998487610000 Sn
atom_frac 0.6198714236490002 0.7500000000000001 0.0988001512390000 Sn
