#=======================================================
# FHI-aims file: eos/001/geometry.in
# Created using the Atomic Simulation Environment (ASE)
# Mon Apr 17 17:15:48 2023
#=======================================================
lattice_vector 11.4619089512435863 -0.0000000000000000 0.0000000000000000 
lattice_vector 0.0000000000000000 4.1444784804057502 0.0000000000000000 
lattice_vector 0.0000000000000000 0.0000000000000000 4.3398654741112157 
atom 9.8378509775535115 3.1083588603043122 0.1426732715358504 Se
atom 1.6240579736900731 1.0361196201014375 4.1971922025753692 Se
atom 7.3550124493118645 1.0361196201014375 2.3126060085914557 Se
atom 4.1068965019317192 3.1083588603043122 2.0272594655197609 Se
atom 1.3747631068880284 3.1083588603043122 1.7271642694636600 Sn
atom 10.0871458443555753 1.0361196201014375 2.6127012046475566 Sn
atom 4.3561913687337643 1.0361196201014375 3.8970970065192683 Sn
atom 7.1057175825098193 3.1083588603043122 0.4427684675919524 Sn
