#=======================================================
# FHI-aims file: /cfs/klemming/projects/snic/snic2021-1-10/dardel-test/flokno/projects/so3krates/dev_SnSe/test_10_EOS_easy/finer/dft_01/eos/013/relaxation/geometry.in.next_step
# Created using the Atomic Simulation Environment (ASE)
# Mon Apr 17 17:27:19 2023

# Additional information:
#  Relaxed with BFGS, fmax=0.100 meV/AA
#  nsteps = 20
#  residual force  = 0.013358 meV/AA
#=======================================================
lattice_vector 11.6007009869799997 -0.0000000000000000 0.0000000000000000 
lattice_vector 0.0000000000000000 4.1946638908649998 0.0000000000000000 
lattice_vector 0.0000000000000000 0.0000000000000000 4.3924168219309996 
atom_frac 0.8581670264119999 0.7499999957289999 0.0325014006550000 Se
atom_frac 0.1418329505570000 0.2499999947500000 0.9674984013260000 Se
atom_frac 0.6418328673030000 0.2500000046030000 0.5325013841160000 Se
atom_frac 0.3581671262060000 0.7500000168170000 0.4674986416280000 Se
atom_frac 0.1204831853240000 0.7500000104279999 0.3965770939750001 Sn
atom_frac 0.8795168284070000 0.2500000487969999 0.6034229873960000 Sn
atom_frac 0.3795168849009999 0.2500000416430000 0.8965768711650001 Sn
atom_frac 0.6204831308890000 0.7499998872320000 0.1034232197400000 Sn
