#=======================================================
# FHI-aims file: /cfs/klemming/projects/snic/snic2021-1-10/dardel-test/flokno/projects/so3krates/dev_SnSe/test_10_EOS_easy/dft_01/eos/003/relaxation/geometry.in.next_step
# Created using the Atomic Simulation Environment (ASE)
# Fri Apr 14 09:42:51 2023

# Additional information:
#  Relaxed with BFGS, fmax=0.100 meV/AA
#  nsteps = 22
#  residual force  = 0.010619 meV/AA
#=======================================================
lattice_vector 11.4734749542220005 -0.0000000000000000 0.0000000000000000 
lattice_vector 0.0000000000000000 4.1486605979439997 0.0000000000000000 
lattice_vector 0.0000000000000000 0.0000000000000000 4.3442447530959996 
atom_frac 0.8586700618120000 0.7499999324460001 0.0329756819100000 Se
atom_frac 0.1413298584560000 0.2500000208400000 0.9670242994779998 Se
atom_frac 0.6413299014720000 0.2500000996040000 0.5329757425100000 Se
atom_frac 0.3586700584760000 0.7499999185049999 0.4670242646440000 Se
atom_frac 0.1186300169380000 0.7500000892169999 0.4028409842070000 Sn
atom_frac 0.8813698988409999 0.2499999247160000 0.5971589852690000 Sn
atom_frac 0.3813700494030000 0.2499999261390000 0.9028410484240000 Sn
atom_frac 0.6186301546020000 0.7500000885320000 0.0971589935590000 Sn
