#=======================================================
# FHI-aims file: eos/002/geometry.in
# Created using the Atomic Simulation Environment (ASE)
# Fri Apr 14 11:23:48 2023
#=======================================================
lattice_vector 11.4272109423094488 -0.0000000000000000 0.0000000000000000 
lattice_vector 0.0000000000000000 4.1319321277909999 0.0000000000000000 
lattice_vector 0.0000000000000000 0.0000000000000000 4.3267276371562877 
atom 9.8080693903358931 3.0989490958432500 0.1422413645584462 Se
atom 1.6191415519735544 1.0329830319477500 4.1844862725978453 Se
atom 7.3327470231282774 1.0329830319477500 2.3056051831365876 Se
atom 4.0944639191811696 3.0989490958432500 2.0211224540197010 Se
atom 1.3706013618621313 3.0989490958432500 1.7219357197074634 Sn
atom 10.0566095804473363 1.0329830319477500 2.6047919174488254 Sn
atom 4.3430041092925924 1.0329830319477500 3.8852995382856075 Sn
atom 7.0842068330168537 3.0989490958432500 0.4414280988706851 Sn
