#=======================================================
# FHI-aims file: /Users/flokno/working/projects/so3krates/dev_SnSe/test_10_EOS_easy/finer/so3krates_L3/eos/003/relaxation/geometry.in.next_step
# Created using the Atomic Simulation Environment (ASE)
# Mon Apr 17 17:20:23 2023

# Additional information:
#  Relaxed with BFGS, fmax=0.100 meV/AA
#  nsteps = 20
#  residual force  = 0.074628 meV/AA
#=======================================================
lattice_vector 11.4850409572000007 -0.0000000000000000 0.0000000000000000 
lattice_vector 0.0000000000000000 4.1528427154819996 0.0000000000000000 
lattice_vector 0.0000000000000000 0.0000000000000000 4.3486240320810001 
atom_frac 0.8588873365430000 0.7500000000000000 0.0326946057720000 Se
atom_frac 0.1411126634570000 0.2500000000000000 0.9673053942280001 Se
atom_frac 0.6411126634570000 0.2500000000000000 0.5326946057720000 Se
atom_frac 0.3588873365430000 0.7500000000000000 0.4673053942280000 Se
atom_frac 0.1190701333290000 0.7500000000000000 0.4035368348150000 Sn
atom_frac 0.8809298666710000 0.2500000000000000 0.5964631651850000 Sn
atom_frac 0.3809298666710000 0.2500000000000000 0.9035368348150001 Sn
atom_frac 0.6190701333290001 0.7500000000000000 0.0964631651850000 Sn
