#=======================================================
# FHI-aims file: /Users/flokno/working/projects/so3krates/dev_SnSe/test_10_EOS_easy/finer/so3krates_L3/eos/020/relaxation/geometry.in.next_step
# Created using the Atomic Simulation Environment (ASE)
# Mon Apr 17 17:26:29 2023

# Additional information:
#  Relaxed with BFGS, fmax=0.100 meV/AA
#  nsteps = 22
#  residual force  = 0.061485 meV/AA
#=======================================================
lattice_vector 11.6816630078259998 -0.0000000000000000 0.0000000000000000 
lattice_vector 0.0000000000000000 4.2239387136320001 0.0000000000000000 
lattice_vector 0.0000000000000000 0.0000000000000000 4.4230717748260000 
atom_frac 0.8578098279919999 0.7500000000000000 0.0330667733570000 Se
atom_frac 0.1421901720080000 0.2500000000000000 0.9669332266430000 Se
atom_frac 0.6421901720080000 0.2500000000000000 0.5330667733570000 Se
atom_frac 0.3578098279920000 0.7500000000000000 0.4669332266430000 Se
atom_frac 0.1217155838090000 0.7500000000000000 0.3908067166460000 Sn
atom_frac 0.8782844161910000 0.2500000000000000 0.6091932833539999 Sn
atom_frac 0.3782844161910000 0.2500000000000000 0.8908067166460000 Sn
atom_frac 0.6217155838090000 0.7500000000000000 0.1091932833540000 Sn
