#=======================================================
# FHI-aims file: eos/004/geometry.in
# Created using the Atomic Simulation Environment (ASE)
# Mon Apr 17 17:15:48 2023
#=======================================================
lattice_vector 11.4966069601777239 -0.0000000000000000 0.0000000000000000 
lattice_vector 0.0000000000000000 4.1570248330205004 0.0000000000000000 
lattice_vector 0.0000000000000000 0.0000000000000000 4.3530033110661437 
atom 9.8676325647711316 3.1177686247653753 0.1431051785132546 Se
atom 1.6289743954065921 1.0392562082551251 4.2098981325528921 Se
atom 7.3772778754954524 1.0392562082551251 2.3196068340463238 Se
atom 4.1193290846822688 3.1177686247653753 2.0333964770198203 Se
atom 1.3789248519139254 3.1177686247653753 1.7323928192198566 Sn
atom 10.1176821082638160 1.0392562082551251 2.6206104918462878 Sn
atom 4.3693786281749363 1.0392562082551251 3.9088944747529286 Sn
atom 7.1272283320027858 3.1177686247653753 0.4441088363132196 Sn
