#=======================================================
# FHI-aims file: /Users/flokno/working/projects/so3krates/dev_SnSe/test_10_EOS_easy/finer/so3krates_L3/eos/005/relaxation/geometry.in.next_step
# Created using the Atomic Simulation Environment (ASE)
# Mon Apr 17 17:21:07 2023

# Additional information:
#  Relaxed with BFGS, fmax=0.100 meV/AA
#  nsteps = 20
#  residual force  = 0.043579 meV/AA
#=======================================================
lattice_vector 11.5081729631559995 -0.0000000000000000 0.0000000000000000 
lattice_vector 0.0000000000000000 4.1612069505590004 0.0000000000000000 
lattice_vector 0.0000000000000000 0.0000000000000000 4.3573825900510004 
atom_frac 0.8587337388490000 0.7500000000000000 0.0328670923510000 Se
atom_frac 0.1412662611510000 0.2500000000000000 0.9671329076490000 Se
atom_frac 0.6412662611510000 0.2500000000000000 0.5328670923510000 Se
atom_frac 0.3587337388490000 0.7500000000000000 0.4671329076490000 Se
atom_frac 0.1192979541970000 0.7500000000000000 0.4016803821330000 Sn
atom_frac 0.8807020458029999 0.2500000000000000 0.5983196178670001 Sn
atom_frac 0.3807020458030000 0.2500000000000000 0.9016803821329999 Sn
atom_frac 0.6192979541970000 0.7500000000000000 0.0983196178670000 Sn
