#=======================================================
# FHI-aims file: ./geometry.in
# Created using the Atomic Simulation Environment (ASE)
# Fri Apr 14 09:40:09 2023
#=======================================================
lattice_vector 11.4272109423094488 -0.0000000000000000 0.0000000000000000 
lattice_vector 0.0000000000000000 4.1319321277909999 0.0000000000000000 
lattice_vector 0.0000000000000000 0.0000000000000000 4.3267276371562877 
atom_frac 0.8583082468549998 0.7500000000000000 0.0328750447190000 Se
atom_frac 0.1416917531450001 0.2500000000000000 0.9671249552810008 Se
atom_frac 0.6416917531450000 0.2500000000000000 0.5328750447189995 Se
atom_frac 0.3583082468549999 0.7500000000000000 0.4671249552810008 Se
atom_frac 0.1199418973520000 0.7500000000000000 0.3979764533640009 Sn
atom_frac 0.8800581026480017 0.2500000000000000 0.6020235466359993 Sn
atom_frac 0.3800581026479999 0.2500000000000000 0.8979764533640010 Sn
atom_frac 0.6199418973519999 0.7500000000000000 0.1020235466360001 Sn
