#=======================================================
# FHI-aims file: /Users/flokno/working/projects/so3krates/dev_SnSe/test_10_EOS_easy/so3krates_L2/eos/004/relaxation/geometry.in.next_step
# Created using the Atomic Simulation Environment (ASE)
# Thu Apr 13 17:19:13 2023

# Additional information:
#  Relaxed with BFGS, fmax=0.100 meV/AA
#  nsteps = 21
#  residual force  = 0.018399 meV/AA
#=======================================================
lattice_vector 11.5197389661339997 -0.0000000000000000 0.0000000000000000 
lattice_vector 0.0000000000000000 4.1653890680970003 0.0000000000000000 
lattice_vector 0.0000000000000000 0.0000000000000000 4.3617618690360000 
atom_frac 0.8585838306930000 0.7500000000000001 0.0316112051970000 Se
atom_frac 0.1414161693070000 0.2500000000000000 0.9683887948040000 Se
atom_frac 0.6414161693070000 0.2500000000000000 0.5316112051970000 Se
atom_frac 0.3585838306930000 0.7500000000000001 0.4683887948040000 Se
atom_frac 0.1195334433010000 0.7500000000000001 0.4028227996680000 Sn
atom_frac 0.8804665566990001 0.2500000000000000 0.5971772003319999 Sn
atom_frac 0.3804665566990000 0.2500000000000000 0.9028227996680001 Sn
atom_frac 0.6195334433010000 0.7500000000000001 0.0971772003320000 Sn
