#=======================================================
# FHI-aims file: eos/011/geometry.in
# Created using the Atomic Simulation Environment (ASE)
# Mon Apr 17 17:11:54 2023
#=======================================================
lattice_vector 11.5775689810240454 -0.0000000000000000 0.0000000000000000 
lattice_vector 0.0000000000000000 4.1862996557882495 0.0000000000000000 
lattice_vector 0.0000000000000000 0.0000000000000000 4.3836582639609754 
atom 9.9371229349455756 3.1397247418411869 0.1441129614605310 Se
atom 1.6404460460784693 1.0465749139470624 4.2395453025004475 Se
atom 7.4292305365904907 1.0465749139470624 2.3359420934410160 Se
atom 4.1483384444335529 3.1397247418411869 2.0477161705199598 Se
atom 1.3886355903076855 3.1397247418411869 1.7445927686509821 Sn
atom 10.1889333907163788 1.0465749139470624 2.6390654953099935 Sn
atom 4.4001489002043366 1.0465749139470624 3.9364219006314700 Sn
atom 7.1774200808197071 3.1397247418411869 0.4472363633295098 Sn
