#=======================================================
# FHI-aims file: /cfs/klemming/projects/snic/snic2021-1-10/dardel-test/flokno/projects/so3krates/dev_SnSe/test_10_EOS_easy/dft_01/eos/006/relaxation/geometry.in.next_step
# Created using the Atomic Simulation Environment (ASE)
# Fri Apr 14 09:42:25 2023

# Additional information:
#  Relaxed with BFGS, fmax=0.100 meV/AA
#  nsteps = 20
#  residual force  = 0.079073 meV/AA
#=======================================================
lattice_vector 11.6122669899580000 -0.0000000000000000 0.0000000000000000 
lattice_vector 0.0000000000000000 4.1988460084029997 0.0000000000000000 
lattice_vector 0.0000000000000000 0.0000000000000000 4.3967961009160001 
atom_frac 0.8581182762380000 0.7499999155100000 0.0323615248720000 Se
atom_frac 0.1418817308220000 0.2500000833300000 0.9676388917929999 Se
atom_frac 0.6418813634940000 0.2500000728330000 0.5323611122090000 Se
atom_frac 0.3581186073850000 0.7499999570640000 0.4676390547349999 Se
atom_frac 0.1206671122490000 0.7500001350840000 0.3961248566760000 Sn
atom_frac 0.8793329405980000 0.2499999109930000 0.6038746682589999 Sn
atom_frac 0.3793328231410000 0.2499998817420000 0.8961247414580000 Sn
atom_frac 0.6206671460719999 0.7500000434430000 0.1038751499990000 Sn
