#=======================================================
# FHI-aims file: eos/004/geometry.in
# Created using the Atomic Simulation Environment (ASE)
# Fri Apr 14 09:34:59 2023
#=======================================================
lattice_vector 11.5197389661338168 -0.0000000000000000 0.0000000000000000 
lattice_vector 0.0000000000000000 4.1653890680970003 0.0000000000000000 
lattice_vector 0.0000000000000000 0.0000000000000000 4.3617618690360960 
atom 9.8874869562495444 3.1240418010727500 0.1433931164981908 Se
atom 1.6322520098842714 1.0413472670242501 4.2183687525379083 Se
atom 7.3921214929511789 1.0413472670242501 2.3242740510162361 Se
atom 4.1276174731826361 3.1240418010727500 2.0374878180198603 Se
atom 1.3816993485978570 3.1240418010727500 1.7358785190573214 Sn
atom 10.1380396175359788 1.0413472670242501 2.6258833499787753 Sn
atom 4.3781701344690509 1.0413472670242501 3.9167594535753696 Sn
atom 7.1415688316647641 3.1240418010727500 0.4450024154607312 Sn
