#=======================================================
# FHI-aims file: /cfs/klemming/projects/snic/snic2021-1-10/dardel-test/flokno/projects/so3krates/dev_SnSe/test_10_EOS_easy/finer/dft_01/eos/020/relaxation/geometry.in.next_step
# Created using the Atomic Simulation Environment (ASE)
# Mon Apr 17 17:30:55 2023

# Additional information:
#  Relaxed with BFGS, fmax=0.100 meV/AA
#  nsteps = 22
#  residual force  = 0.049208 meV/AA
#=======================================================
lattice_vector 11.6816630078259998 -0.0000000000000000 0.0000000000000000 
lattice_vector 0.0000000000000000 4.2239387136320001 0.0000000000000000 
lattice_vector 0.0000000000000000 0.0000000000000000 4.4230717748260000 
atom_frac 0.8578149610490000 0.7499999193380000 0.0314486685180000 Se
atom_frac 0.1421850444800000 0.2499999805560000 0.9685516315989999 Se
atom_frac 0.6421850324700000 0.2500000203320000 0.5314485272560000 Se
atom_frac 0.3578149454230000 0.7499999688780000 0.4685515149360000 Se
atom_frac 0.1218188931260000 0.7500001327640001 0.3934953480260000 Sn
atom_frac 0.8781811456900001 0.2499999371470000 0.6065042990970000 Sn
atom_frac 0.3781811143650000 0.2499998902110000 0.8934954905970000 Sn
atom_frac 0.6218188633960000 0.7500001507740000 0.1065045199700000 Sn
