#=======================================================
# FHI-aims file: eos/005/geometry.in
# Created using the Atomic Simulation Environment (ASE)
# Thu Apr 13 17:22:43 2023
#=======================================================
lattice_vector 11.5660029780460007 -0.0000000000000000 0.0000000000000000 
lattice_vector 0.0000000000000000 4.1821175382500000 0.0000000000000000 
lattice_vector 0.0000000000000000 0.0000000000000000 4.3792789849759997 
atom 9.9271957392063701 3.1365881536874998 0.1439689924680630 Se
atom 1.6388072388396300 1.0455293845625000 4.2353099925079398 Se
atom 7.4218087278626292 1.0455293845625000 2.3336084849560601 Se
atom 4.1441942501833697 3.1365881536874998 2.0456705000199400 Se
atom 1.3872483419657200 3.1365881536874998 1.7428499187322501 Sn
atom 10.1787546360802992 1.0455293845625000 2.6364290662437502 Sn
atom 4.3957531470572802 1.0455293845625000 3.9324894112202502 Sn
atom 7.1702498309887188 3.1365881536874998 0.4467895737557541 Sn
