#=======================================================
# FHI-aims file: eos/020/geometry.in
# Created using the Atomic Simulation Environment (ASE)
# Mon Apr 17 17:11:54 2023
#=======================================================
lattice_vector 11.6816630078264616 -0.0000000000000000 0.0000000000000000 
lattice_vector 0.0000000000000000 4.2239387136325002 0.0000000000000000 
lattice_vector 0.0000000000000000 0.0000000000000000 4.4230717748257593 
atom 10.0264676965984343 3.1679540352243749 0.1454086823927436 Se
atom 1.6551953112280262 1.0559846784081250 4.2776630924330190 Se
atom 7.4960268151412555 1.0559846784081250 2.3569445698056208 Se
atom 4.1856361926852035 3.1679540352243749 2.0661272050201394 Se
atom 1.4011208253853773 3.1679540352243749 1.7602784179195727 Sn
atom 10.2805421824411027 1.0559846784081250 2.6627933569061879 Sn
atom 4.4397106785278533 1.0559846784081250 3.9718143053324528 Sn
atom 7.2419523292986057 3.1679540352243749 0.4512574694933117 Sn
