#=======================================================
# FHI-aims file: eos/003/geometry.in
# Created using the Atomic Simulation Environment (ASE)
# Mon Apr 17 17:15:48 2023
#=======================================================
lattice_vector 11.4850409571996792 -0.0000000000000000 0.0000000000000000 
lattice_vector 0.0000000000000000 4.1528427154822500 0.0000000000000000 
lattice_vector 0.0000000000000000 0.0000000000000000 4.3486240320811680 
atom 9.8577053690319261 3.1146320366116873 0.1429612095207866 Se
atom 1.6273355881677525 1.0382106788705625 4.2056628225603845 Se
atom 7.3698560667675910 1.0382106788705625 2.3172732255613679 Se
atom 4.1151848904320865 3.1146320366116873 2.0313508065198005 Se
atom 1.3775376035719600 3.1146320366116873 1.7306499693011246 Sn
atom 10.1075033536277363 1.0382106788705625 2.6179740627800441 Sn
atom 4.3649828750278790 1.0382106788705625 3.9049619853417088 Sn
atom 7.1200580821717976 3.1146320366116873 0.4436620467394639 Sn
