#=======================================================
# FHI-aims file: /Users/flokno/working/projects/so3krates/dev_SnSe/test_10_EOS_easy/finer/so3krates_L1/eos/006/relaxation/geometry.in.next_step
# Created using the Atomic Simulation Environment (ASE)
# Mon Apr 17 17:08:39 2023

# Additional information:
#  Relaxed with BFGS, fmax=0.100 meV/AA
#  nsteps = 20
#  residual force  = 0.090633 meV/AA
#=======================================================
lattice_vector 11.5197389661339997 -0.0000000000000000 0.0000000000000000 
lattice_vector 0.0000000000000000 4.1653890680970003 0.0000000000000000 
lattice_vector 0.0000000000000000 0.0000000000000000 4.3617618690360000 
atom_frac 0.8586927007589999 0.7500000000000001 0.0299395984160000 Se
atom_frac 0.1413072992400000 0.2500000000000000 0.9700604015840001 Se
atom_frac 0.6413072992410001 0.2500000000000000 0.5299395984160000 Se
atom_frac 0.3586927007590001 0.7500000000000001 0.4700604015840000 Se
atom_frac 0.1196882911750000 0.7500000000000001 0.4054105458450000 Sn
atom_frac 0.8803117088250000 0.2500000000000000 0.5945894541550000 Sn
atom_frac 0.3803117088250000 0.2500000000000000 0.9054105458450000 Sn
atom_frac 0.6196882911750000 0.7500000000000001 0.0945894541550000 Sn
