#=======================================================
# FHI-aims file: /Users/flokno/working/projects/so3krates/dev_SnSe/test_10_EOS_easy/finer/so3krates_L3/eos/010/relaxation/geometry.in.next_step
# Created using the Atomic Simulation Environment (ASE)
# Mon Apr 17 17:22:49 2023

# Additional information:
#  Relaxed with BFGS, fmax=0.100 meV/AA
#  nsteps = 15
#  residual force  = 0.078847 meV/AA
#=======================================================
lattice_vector 11.5660029780460007 -0.0000000000000000 0.0000000000000000 
lattice_vector 0.0000000000000000 4.1821175382500000 0.0000000000000000 
lattice_vector 0.0000000000000000 0.0000000000000000 4.3792789849759997 
atom_frac 0.8583894589850000 0.7499999999999999 0.0331562825900000 Se
atom_frac 0.1416105410150000 0.2500000000000000 0.9668437174100000 Se
atom_frac 0.6416105410150000 0.2500000000000000 0.5331562825900000 Se
atom_frac 0.3583894589850000 0.7499999999999999 0.4668437174100000 Se
atom_frac 0.1199556873510000 0.7499999999999999 0.3974259825710000 Sn
atom_frac 0.8800443126490000 0.2500000000000000 0.6025740174290001 Sn
atom_frac 0.3800443126490000 0.2500000000000000 0.8974259825710000 Sn
atom_frac 0.6199556873510000 0.7499999999999999 0.1025740174290000 Sn
