#=======================================================
# FHI-aims file: /Users/flokno/working/projects/so3krates/dev_SnSe/test_10_EOS_easy/so3krates_L2/eos/009/relaxation/geometry.in.next_step
# Created using the Atomic Simulation Environment (ASE)
# Thu Apr 13 17:20:33 2023

# Additional information:
#  Relaxed with BFGS, fmax=0.100 meV/AA
#  nsteps = 22
#  residual force  = 0.022600 meV/AA
#=======================================================
lattice_vector 11.7510590256949996 -0.0000000000000000 0.0000000000000000 
lattice_vector 0.0000000000000000 4.2490314188619998 0.0000000000000000 
lattice_vector 0.0000000000000000 0.0000000000000000 4.4493474487359999 
atom_frac 0.8577785102830000 0.7500000000000000 0.0342391784050000 Se
atom_frac 0.1422214897170000 0.2500000000000000 0.9657608215950000 Se
atom_frac 0.6422214897170000 0.2500000000000000 0.5342391784049999 Se
atom_frac 0.3577785102830000 0.7500000000000000 0.4657608215950000 Se
atom_frac 0.1232087319830000 0.7500000000000000 0.3879924451190000 Sn
atom_frac 0.8767912680170000 0.2500000000000000 0.6120075548810000 Sn
atom_frac 0.3767912680170000 0.2500000000000000 0.8879924451190000 Sn
atom_frac 0.6232087319830000 0.7500000000000000 0.1120075548810000 Sn
