#=======================================================
# FHI-aims file: /cfs/klemming/projects/snic/snic2021-1-10/dardel-test/flokno/projects/so3krates/dev_SnSe/test_10_EOS_easy/finer/dft_01/eos/011/relaxation/geometry.in.next_step
# Created using the Atomic Simulation Environment (ASE)
# Mon Apr 17 17:26:32 2023

# Additional information:
#  Relaxed with BFGS, fmax=0.100 meV/AA
#  nsteps = 14
#  residual force  = 0.097624 meV/AA
#=======================================================
lattice_vector 11.5775689810239992 -0.0000000000000000 0.0000000000000000 
lattice_vector 0.0000000000000000 4.1862996557879999 0.0000000000000000 
lattice_vector 0.0000000000000000 0.0000000000000000 4.3836582639610002 
atom_frac 0.8582601415860001 0.7499997097440000 0.0327638561310000 Se
atom_frac 0.1417395992080000 0.2500000931270000 0.9672359168769998 Se
atom_frac 0.6417393077960000 0.2500002592870000 0.5327646301230000 Se
atom_frac 0.3582608124520000 0.7500000166700000 0.4672355051790000 Se
atom_frac 0.1201174281350000 0.7499999661009998 0.3975035165090000 Sn
atom_frac 0.8798821227340000 0.2500001302100000 0.6024965399550000 Sn
atom_frac 0.3798821583150001 0.2499998670230000 0.8975043363320000 Sn
atom_frac 0.6201184297730000 0.7499999578390000 0.1024956988940000 Sn
