#=======================================================
# FHI-aims file: /Users/flokno/working/projects/so3krates/dev_SnSe/test_10_EOS_easy/finer/so3krates_L2/eos/020/relaxation/geometry.in.next_step
# Created using the Atomic Simulation Environment (ASE)
# Mon Apr 17 17:18:11 2023

# Additional information:
#  Relaxed with BFGS, fmax=0.100 meV/AA
#  nsteps = 22
#  residual force  = 0.045658 meV/AA
#=======================================================
lattice_vector 11.6816630078259998 -0.0000000000000000 0.0000000000000000 
lattice_vector 0.0000000000000000 4.2239387136320001 0.0000000000000000 
lattice_vector 0.0000000000000000 0.0000000000000000 4.4230717748260000 
atom_frac 0.8581092294019999 0.7500000000000000 0.0335421911190000 Se
atom_frac 0.1418907705980000 0.2500000000000000 0.9664578088810000 Se
atom_frac 0.6418907705980000 0.2500000000000000 0.5335421911190000 Se
atom_frac 0.3581092294020000 0.7500000000000000 0.4664578088810000 Se
atom_frac 0.1220655949220000 0.7500000000000000 0.3920693406990000 Sn
atom_frac 0.8779344050780000 0.2500000000000000 0.6079306593010000 Sn
atom_frac 0.3779344050780000 0.2500000000000000 0.8920693406990000 Sn
atom_frac 0.6220655949220000 0.7500000000000000 0.1079306593010000 Sn
