#=======================================================
# FHI-aims file: /Users/flokno/working/projects/so3krates/dev_SnSe/test_10_EOS_easy/finer/so3krates_L2/eos/013/relaxation/geometry.in.next_step
# Created using the Atomic Simulation Environment (ASE)
# Mon Apr 17 17:16:12 2023

# Additional information:
#  Relaxed with BFGS, fmax=0.100 meV/AA
#  nsteps = 12
#  residual force  = 0.056223 meV/AA
#=======================================================
lattice_vector 11.6007009869799997 -0.0000000000000000 0.0000000000000000 
lattice_vector 0.0000000000000000 4.1946638908649998 0.0000000000000000 
lattice_vector 0.0000000000000000 0.0000000000000000 4.3924168219309996 
atom_frac 0.8583722471770000 0.7500000000000000 0.0325239770570000 Se
atom_frac 0.1416277528230000 0.2500000000000000 0.9674760229430001 Se
atom_frac 0.6416277528230000 0.2500000000000000 0.5325239770570002 Se
atom_frac 0.3583722471769999 0.7500000000000000 0.4674760229430000 Se
atom_frac 0.1207645912280000 0.7500000000000000 0.3973060776430000 Sn
atom_frac 0.8792354087719999 0.2500000000000000 0.6026939223570000 Sn
atom_frac 0.3792354087720000 0.2500000000000000 0.8973060776430001 Sn
atom_frac 0.6207645912280000 0.7500000000000000 0.1026939223570000 Sn
