#=======================================================
# FHI-aims file: /Users/flokno/working/projects/so3krates/dev_SnSe/test_10_EOS_easy/finer/so3krates_L1/eos/004/relaxation/geometry.in.next_step
# Created using the Atomic Simulation Environment (ASE)
# Mon Apr 17 17:08:18 2023

# Additional information:
#  Relaxed with BFGS, fmax=0.100 meV/AA
#  nsteps = 22
#  residual force  = 0.012651 meV/AA
#=======================================================
lattice_vector 11.4966069601779992 -0.0000000000000000 0.0000000000000000 
lattice_vector 0.0000000000000000 4.1570248330209996 0.0000000000000000 
lattice_vector 0.0000000000000000 0.0000000000000000 4.3530033110659998 
atom_frac 0.8587393316020000 0.7500000000000000 0.0287766959200000 Se
atom_frac 0.1412606683980000 0.2500000000000000 0.9712233040800001 Se
atom_frac 0.6412606683980000 0.2500000000000000 0.5287766959200000 Se
atom_frac 0.3587393316020000 0.7500000000000000 0.4712233040800000 Se
atom_frac 0.1193355631750000 0.7500000000000000 0.4081249444640000 Sn
atom_frac 0.8806644368250000 0.2500000000000000 0.5918750555359999 Sn
atom_frac 0.3806644368250000 0.2500000000000000 0.9081249444640001 Sn
atom_frac 0.6193355631750000 0.7500000000000000 0.0918750555360000 Sn
