#=======================================================
# FHI-aims file: eos/016/geometry.in
# Created using the Atomic Simulation Environment (ASE)
# Mon Apr 17 17:07:11 2023
#=======================================================
lattice_vector 11.6353989959142776 -0.0000000000000000 0.0000000000000000 
lattice_vector 0.0000000000000000 4.2072102434794996 0.0000000000000000 
lattice_vector 0.0000000000000000 0.0000000000000000 4.4055546588858556 
atom 9.9867589136416086 3.1554076826096242 0.1448328064228714 Se
atom 1.6486400822726677 1.0518025608698747 4.2607218524629875 Se
atom 7.4663395802298052 1.0518025608698747 2.3476101358657964 Se
atom 4.1690594156844698 3.1554076826096242 2.0579445230200597 Se
atom 1.3955718320175143 3.1554076826096242 1.7533070182446437 Sn
atom 10.2398271638967806 1.0518025608698747 2.6522476406412125 Sn
atom 4.4221276659396240 1.0518025608698747 3.9560843476875718 Sn
atom 7.2132713299746509 3.1554076826096242 0.4494703111982887 Sn
