#=======================================================
# FHI-aims file: /Users/flokno/working/projects/so3krates/dev_SnSe/test_10_EOS_easy/so3krates_L2/eos/008/relaxation/geometry.in.next_step
# Created using the Atomic Simulation Environment (ASE)
# Thu Apr 13 17:20:16 2023

# Additional information:
#  Relaxed with BFGS, fmax=0.100 meV/AA
#  nsteps = 22
#  residual force  = 0.056684 meV/AA
#=======================================================
lattice_vector 11.7047950137830004 -0.0000000000000000 0.0000000000000000 
lattice_vector 0.0000000000000000 4.2323029487090000 0.0000000000000000 
lattice_vector 0.0000000000000000 0.0000000000000000 4.4318303327960002 
atom_frac 0.8580125159309999 0.7500000000000000 0.0338046662500000 Se
atom_frac 0.1419874840680000 0.2500000000000000 0.9661953337499999 Se
atom_frac 0.6419874840680000 0.2500000000000000 0.5338046662500000 Se
atom_frac 0.3580125159320000 0.7500000000000000 0.4661953337500000 Se
atom_frac 0.1224446488720000 0.7500000000000000 0.3906617308430000 Sn
atom_frac 0.8775553511279999 0.2500000000000000 0.6093382691569998 Sn
atom_frac 0.3775553511280000 0.2500000000000000 0.8906617308430000 Sn
atom_frac 0.6224446488720000 0.7500000000000000 0.1093382691570000 Sn
