#=======================================================
# FHI-aims file: /Users/flokno/working/projects/so3krates/dev_SnSe/test_10_EOS_easy/so3krates_L3/eos/001/relaxation/geometry.in.next_step
# Created using the Atomic Simulation Environment (ASE)
# Thu Apr 13 17:23:33 2023

# Additional information:
#  Relaxed with BFGS, fmax=0.100 meV/AA
#  nsteps = 22
#  residual force  = 0.060079 meV/AA
#=======================================================
lattice_vector 11.3809469303970001 -0.0000000000000000 0.0000000000000000 
lattice_vector 0.0000000000000000 4.1152036576380002 0.0000000000000000 
lattice_vector 0.0000000000000000 0.0000000000000000 4.3092105212160003 
atom_frac 0.8596897921070000 0.7500000000000000 0.0311968000600000 Se
atom_frac 0.1403102078930000 0.2500000000000000 0.9688031999400000 Se
atom_frac 0.6403102078930000 0.2500000000000000 0.5311968000600001 Se
atom_frac 0.3596897921070000 0.7500000000000000 0.4688031999400000 Se
atom_frac 0.1183505525570000 0.7500000000000000 0.4132970620170000 Sn
atom_frac 0.8816494474429999 0.2500000000000000 0.5867029379830000 Sn
atom_frac 0.3816494474429999 0.2500000000000000 0.9132970620170000 Sn
atom_frac 0.6183505525570000 0.7500000000000000 0.0867029379830000 Sn
