#=======================================================
# FHI-aims file: /Users/flokno/working/projects/so3krates/dev_SnSe/test_10_EOS_easy/so3krates_L3/eos/009/relaxation/geometry.in.next_step
# Created using the Atomic Simulation Environment (ASE)
# Thu Apr 13 17:26:31 2023

# Additional information:
#  Relaxed with BFGS, fmax=0.100 meV/AA
#  nsteps = 22
#  residual force  = 0.018321 meV/AA
#=======================================================
lattice_vector 11.7510590256949996 -0.0000000000000000 0.0000000000000000 
lattice_vector 0.0000000000000000 4.2490314188619998 0.0000000000000000 
lattice_vector 0.0000000000000000 0.0000000000000000 4.4493474487359999 
atom_frac 0.8574963321630000 0.7500000000000000 0.0325654836330000 Se
atom_frac 0.1425036678370000 0.2500000000000000 0.9674345163669998 Se
atom_frac 0.6425036678370000 0.2500000000000000 0.5325654836330000 Se
atom_frac 0.3574963321630000 0.7500000000000000 0.4674345163670000 Se
atom_frac 0.1230063661570000 0.7500000000000000 0.3879498870209999 Sn
atom_frac 0.8769936338430000 0.2500000000000000 0.6120501129790000 Sn
atom_frac 0.3769936338430000 0.2500000000000000 0.8879498870209999 Sn
atom_frac 0.6230063661570000 0.7500000000000000 0.1120501129790000 Sn
