#=======================================================
# FHI-aims file: geometry.in.primitive.supercell_256.0300K
# Created using the Atomic Simulation Environment (ASE)
# Fri Apr  7 17:36:05 2023

# Additional information:
#  created from MB distrubtion
#  T = 300.0 K
#  quantum:             False
#  deterministic:       False
#  plus_minus:          False
#  gauge_eigenvectors:  False
#  Random seed:         1889223674
#  Sample number:       1
#=======================================================
lattice_vector 23.2690517097740361 0.0000000000000000 0.0000000000000000 
lattice_vector 0.0000000000000000 16.7826781019280808 0.0000000000000000 
lattice_vector 0.0000000000000000 0.0000000000000000 17.6168860998680401 
atom 9.9860094894972455 3.1467521441115132 0.1447889795856728 Se
    velocity -4.7622440501538126 1.6814983150323584 -2.2830627560686296
atom 21.6205353443842654 3.1467521441115132 0.1447889795856728 Se
    velocity -0.7911898058364440 0.1733935586488594 -1.6415004596662333
atom 9.9860094894972455 7.3424216695935351 0.1447889795856728 Se
    velocity -2.4720451548149440 2.1222224402123313 1.2661145390597128
atom 21.6205353443842654 7.3424216695935351 0.1447889795856728 Se
    velocity 0.2052706278246833 -3.9502624711534171 2.2804069724999763
atom 9.9860094894972455 11.5380911950755554 0.1447889795856728 Se
    velocity 2.8517062780635363 0.3944114995870214 2.0171950830018766
atom 21.6205353443842654 11.5380911950755554 0.1447889795856728 Se
    velocity 0.6760372524126235 0.0119067313853933 -2.4450400370752607
atom 9.9860094894972455 15.7337607205575765 0.1447889795856728 Se
    velocity -1.6664657961795812 -0.3022993828332627 -4.3242018695626951
atom 21.6205353443842654 15.7337607205575765 0.1447889795856728 Se
    velocity 3.0974744836210113 -1.3757435617022515 1.0516169501042238
atom 9.9860094894972455 3.1467521441115132 4.5490105045526832 Se
    velocity 4.8202656112423892 -0.6629906850898276 -0.0923462492719777
atom 21.6205353443842654 3.1467521441115132 4.5490105045526832 Se
    velocity -0.2328035424232443 1.9395517923256311 1.1808042351409360
atom 9.9860094894972455 7.3424216695935351 4.5490105045526832 Se
    velocity 3.5098313626826392 -0.1975766307396915 0.3752430341504188
atom 21.6205353443842654 7.3424216695935351 4.5490105045526832 Se
    velocity 0.0710838063484462 1.8936990889256535 1.0690360157519683
atom 9.9860094894972455 11.5380911950755554 4.5490105045526832 Se
    velocity 1.7307938792613804 -2.9560223267386543 3.1717539218637891
atom 21.6205353443842654 11.5380911950755554 4.5490105045526832 Se
    velocity 0.8875018918407345 -1.3646222068648539 0.9082834531066063
atom 9.9860094894972455 15.7337607205575765 4.5490105045526832 Se
    velocity -2.2143125069964245 -0.8815202535375857 -1.3014534673422429
atom 21.6205353443842654 15.7337607205575765 4.5490105045526832 Se
    velocity -2.5260640011185269 -1.2673540308357636 0.4396935939978101
atom 9.9860094894972455 3.1467521441115132 8.9532320295196914 Se
    velocity -0.9131664802690855 0.7745206102227198 -2.1173341833959585
atom 21.6205353443842654 3.1467521441115132 8.9532320295196914 Se
    velocity -0.0657618038169630 -0.8131677748479760 0.5494173361906896
atom 9.9860094894972455 7.3424216695935351 8.9532320295196914 Se
    velocity 0.4180318590948995 -0.2110695279777123 -1.8676072673303796
atom 21.6205353443842654 7.3424216695935351 8.9532320295196914 Se
    velocity -0.6256786689021426 1.7722402065794129 -1.4004380581997087
atom 9.9860094894972455 11.5380911950755554 8.9532320295196914 Se
    velocity -2.0734441367347745 -1.9882622914023058 -2.0346547148322043
atom 21.6205353443842654 11.5380911950755554 8.9532320295196914 Se
    velocity 0.8520588674773359 -1.7245853415100849 -1.5781958844519881
atom 9.9860094894972455 15.7337607205575765 8.9532320295196914 Se
    velocity 1.8069632620538656 0.5503984476421441 1.8663863204548830
atom 21.6205353443842654 15.7337607205575765 8.9532320295196914 Se
    velocity 1.2209817658485398 -4.2414063806148974 2.4838462712169584
atom 9.9860094894972455 3.1467521441115132 13.3574535544867015 Se
    velocity -4.1854877964387516 -0.4253004658952311 0.6851303087618187
atom 21.6205353443842654 3.1467521441115132 13.3574535544867015 Se
    velocity -1.4368010675644303 -0.5952818255857005 -2.9390811515706967
atom 9.9860094894972455 7.3424216695935351 13.3574535544867015 Se
    velocity 2.1764824665736007 2.9503840286885854 -1.9425660989231837
atom 21.6205353443842654 7.3424216695935351 13.3574535544867015 Se
    velocity 0.5561998574958407 -2.6438503529245891 -0.2257075621930986
atom 9.9860094894972455 11.5380911950755554 13.3574535544867015 Se
    velocity -0.1809281647463062 0.2515525789487983 -3.4176494754793598
atom 21.6205353443842654 11.5380911950755554 13.3574535544867015 Se
    velocity -1.2563884402489405 -0.1868309936051652 -3.9103760983590683
atom 9.9860094894972455 15.7337607205575765 13.3574535544867015 Se
    velocity -0.1493656172057365 0.4304506833318721 -0.8041094209842365
atom 21.6205353443842654 15.7337607205575765 13.3574535544867015 Se
    velocity 1.9459828574149436 2.6851917429113699 -1.9003436016435387
atom 1.6485163653897714 1.0489173813705051 4.2594325453813413 Se
    velocity -1.5041092125191360 -2.5370066155871536 -1.2343832416024647
atom 13.2830422202767906 1.0489173813705051 4.2594325453813413 Se
    velocity 1.4201280970929226 0.7746543331633183 -1.0887108194694672
atom 1.6485163653897714 5.2445869068525255 4.2594325453813413 Se
    velocity 0.3896577324850987 -0.0805125839031404 1.6327714604133106
atom 13.2830422202767906 5.2445869068525255 4.2594325453813413 Se
    velocity -2.4051363501352094 -0.9716195272442545 -1.8442541438034643
atom 1.6485163653897714 9.4402564323345448 4.2594325453813413 Se
    velocity -1.1202727968320727 -1.9209053232563078 -1.1846595250717735
atom 13.2830422202767906 9.4402564323345448 4.2594325453813413 Se
    velocity -2.5160885210540109 0.9904985091169912 -0.8775481202941767
atom 1.6485163653897714 13.6359259578165659 4.2594325453813413 Se
    velocity -0.0015483067102624 -4.4215307498834653 2.4419045890679367
atom 13.2830422202767906 13.6359259578165659 4.2594325453813413 Se
    velocity -0.9257650663250084 2.2956005653686007 -1.2603531310482750
atom 1.6485163653897714 1.0489173813705051 8.6636540703483504 Se
    velocity 2.5834691606986282 -0.0354925565497012 2.8378009150941916
atom 13.2830422202767906 1.0489173813705051 8.6636540703483504 Se
    velocity 1.0988526936970222 -0.0353691986164925 -0.7412372730009195
atom 1.6485163653897714 5.2445869068525255 8.6636540703483504 Se
    velocity -0.0649217289461134 -0.5337171146223636 2.3280927235632487
atom 13.2830422202767906 5.2445869068525255 8.6636540703483504 Se
    velocity -1.4083360793309623 0.4365159859904277 -1.5856781926265060
atom 1.6485163653897714 9.4402564323345448 8.6636540703483504 Se
    velocity -0.1844293353221202 -1.6734995375911446 -0.4764800843510482
atom 13.2830422202767906 9.4402564323345448 8.6636540703483504 Se
    velocity -0.1384753400559277 -0.8310835937414925 1.4582669929749310
atom 1.6485163653897714 13.6359259578165659 8.6636540703483504 Se
    velocity 1.6887825570997681 -1.5479828566871034 0.7329364442049646
atom 13.2830422202767906 13.6359259578165659 8.6636540703483504 Se
    velocity 3.1649099650197701 0.4079742201002561 -0.0592521221220635
atom 1.6485163653897714 1.0489173813705051 13.0678755953153605 Se
    velocity -1.9439956396675087 -0.4717484303075307 0.9175324254071532
atom 13.2830422202767906 1.0489173813705051 13.0678755953153605 Se
    velocity -0.7167196701672099 1.6168656503209027 5.1833027067984103
atom 1.6485163653897714 5.2445869068525255 13.0678755953153605 Se
    velocity 2.5990730009100425 -1.2003448862691046 0.7610071382065990
atom 13.2830422202767906 5.2445869068525255 13.0678755953153605 Se
    velocity 0.1700005882973140 -1.5064749155920167 1.0269051982762341
atom 1.6485163653897714 9.4402564323345448 13.0678755953153605 Se
    velocity 1.4748563999970850 1.7941463045289523 -2.0578155087218439
atom 13.2830422202767906 9.4402564323345448 13.0678755953153605 Se
    velocity 1.9224666548925382 2.2048041380841537 0.6056921835882433
atom 1.6485163653897714 13.6359259578165659 13.0678755953153605 Se
    velocity 1.9205001245192437 0.1870161650254233 -2.3349907501694176
atom 13.2830422202767906 13.6359259578165659 13.0678755953153605 Se
    velocity 2.4572676703785543 5.4866984140293278 -0.0590312561142070
atom 1.6485163653897714 1.0489173813705051 17.4720971202823705 Se
    velocity 0.6056722321566383 -0.3252223753365644 2.5050778322509979
atom 13.2830422202767906 1.0489173813705051 17.4720971202823705 Se
    velocity 0.7427971109979434 -0.5444314636221724 2.0811902675190774
atom 1.6485163653897714 5.2445869068525255 17.4720971202823705 Se
    velocity -1.4405505774312719 2.0706743596871413 1.8490694285023788
atom 13.2830422202767906 5.2445869068525255 17.4720971202823705 Se
    velocity -2.0909217205096051 0.5446849331226675 -1.9549898828396663
atom 1.6485163653897714 9.4402564323345448 17.4720971202823705 Se
    velocity -1.5250754644192634 -2.0832477887023457 -1.8697150518843231
atom 13.2830422202767906 9.4402564323345448 17.4720971202823705 Se
    velocity -2.9427185802596907 1.7419667086359196 0.1370762977333529
atom 1.6485163653897714 13.6359259578165659 17.4720971202823705 Se
    velocity 1.0137906851486080 3.5847750409258552 1.6864558858447143
atom 13.2830422202767906 13.6359259578165659 17.4720971202823705 Se
    velocity -0.4437203266756710 -1.9316017835561068 -1.4174913501739901
atom 7.4657792928332807 1.0489173813705051 2.3468997420691742 Se
    velocity 0.6056558330346703 0.3490757042442277 -1.0269117361277380
atom 19.1003051477202987 1.0489173813705051 2.3468997420691742 Se
    velocity -1.8019026643965410 -0.5310685222233097 -3.2844411018908479
atom 7.4657792928332807 5.2445869068525255 2.3468997420691742 Se
    velocity -2.0964038398454101 -1.1989216475740707 2.0619149427131425
atom 19.1003051477202987 5.2445869068525255 2.3468997420691742 Se
    velocity 0.6753948307811247 -0.6311436729887480 1.9664785064272707
atom 7.4657792928332807 9.4402564323345448 2.3468997420691742 Se
    velocity 0.6758836959102694 -1.0287218352650229 2.3126091260595416
atom 19.1003051477202987 9.4402564323345448 2.3468997420691742 Se
    velocity 1.9175777693041360 2.5570970484298714 0.6484013900900049
atom 7.4657792928332807 13.6359259578165659 2.3468997420691742 Se
    velocity -1.5968602668151830 -1.3445026593105411 -0.0665055436305415
atom 19.1003051477202987 13.6359259578165659 2.3468997420691742 Se
    velocity 2.9207510134013486 -1.3645732138837774 -2.0790060487322197
atom 7.4657792928332807 1.0489173813705051 6.7511212670361838 Se
    velocity -3.2120367800296403 -2.4250125433776284 1.1992627132169333
atom 19.1003051477202987 1.0489173813705051 6.7511212670361838 Se
    velocity 2.8864321061287255 2.7796135871314496 0.6473950279615006
atom 7.4657792928332807 5.2445869068525255 6.7511212670361838 Se
    velocity -0.6414435823382988 -2.7093358087022641 1.0428376666380175
atom 19.1003051477202987 5.2445869068525255 6.7511212670361838 Se
    velocity 0.3682741568819263 -0.6854033751352642 1.2949110284838672
atom 7.4657792928332807 9.4402564323345448 6.7511212670361838 Se
    velocity -3.4775582972352783 -2.6368871711576949 1.6295053720857393
atom 19.1003051477202987 9.4402564323345448 6.7511212670361838 Se
    velocity 0.5577446962884710 -0.6141118143949024 1.3603231372052824
atom 7.4657792928332807 13.6359259578165659 6.7511212670361838 Se
    velocity 2.0856370609661430 3.2876673140192110 0.0431226846276194
atom 19.1003051477202987 13.6359259578165659 6.7511212670361838 Se
    velocity -1.9025631956626188 0.7322647380635209 -1.7834675836587683
atom 7.4657792928332807 1.0489173813705051 11.1553427920031947 Se
    velocity 0.2527291118837452 1.3826200109116253 -1.3696835321513685
atom 19.1003051477202987 1.0489173813705051 11.1553427920031947 Se
    velocity 1.2371903075534498 0.2214026706687692 1.6264110932970919
atom 7.4657792928332807 5.2445869068525255 11.1553427920031947 Se
    velocity 0.8751838603662841 -0.7025113956335015 -3.3269424614184251
atom 19.1003051477202987 5.2445869068525255 11.1553427920031947 Se
    velocity 1.1307839295989179 -0.7939981830037087 0.6352703759235712
atom 7.4657792928332807 9.4402564323345448 11.1553427920031947 Se
    velocity -2.8803759439429388 -2.5274265043942039 -1.1613864403809713
atom 19.1003051477202987 9.4402564323345448 11.1553427920031947 Se
    velocity -0.4605178526892013 1.3803487668141399 0.2541244486537683
atom 7.4657792928332807 13.6359259578165659 11.1553427920031947 Se
    velocity 0.4293825906840139 -0.3830645409154589 0.7724275077877992
atom 19.1003051477202987 13.6359259578165659 11.1553427920031947 Se
    velocity 0.6837910494335832 3.5499292592780956 0.6080044165474841
atom 7.4657792928332807 1.0489173813705051 15.5595643169702047 Se
    velocity 0.6109127494056227 1.8854230753418573 -0.0106020386451220
atom 19.1003051477202987 1.0489173813705051 15.5595643169702047 Se
    velocity 1.7421138080146756 3.4337611606973124 1.6110314297354096
atom 7.4657792928332807 5.2445869068525255 15.5595643169702047 Se
    velocity 0.5957773607599477 -1.0339446653453390 0.4564427920219801
atom 19.1003051477202987 5.2445869068525255 15.5595643169702047 Se
    velocity 1.4508537042758547 1.5413551005197736 -0.8194818103146034
atom 7.4657792928332807 9.4402564323345448 15.5595643169702047 Se
    velocity -1.0196331865400841 -0.0079992387635648 -4.7056111982589677
atom 19.1003051477202987 9.4402564323345448 15.5595643169702047 Se
    velocity 1.8342575172698841 -0.0683754100251591 0.9056271792485894
atom 7.4657792928332807 13.6359259578165659 15.5595643169702047 Se
    velocity 2.0396785449579085 -0.1406461410817003 -0.4334256035430283
atom 19.1003051477202987 13.6359259578165659 15.5595643169702047 Se
    velocity 0.4375169291789490 -1.8681354567019877 -0.6872499502730325
atom 4.1687465620537347 3.1467521441115132 2.0573217828978358 Se
    velocity -1.1541422541825321 -2.7586416952208355 0.6581123517330797
atom 15.8032724169407537 3.1467521441115132 2.0573217828978358 Se
    velocity 0.4053330471492197 -3.1626207138616076 0.4690578591299371
atom 4.1687465620537347 7.3424216695935351 2.0573217828978358 Se
    velocity 0.5695776861943523 0.5736243441021937 2.2506488015731740
atom 15.8032724169407537 7.3424216695935351 2.0573217828978358 Se
    velocity 0.7306955110660343 -0.5416036523135557 -2.7958408733416684
atom 4.1687465620537347 11.5380911950755554 2.0573217828978358 Se
    velocity 2.2373663581398771 1.3689121335665886 -2.2876269292380420
atom 15.8032724169407537 11.5380911950755554 2.0573217828978358 Se
    velocity 1.7110153856495802 -0.9294833786497128 2.9308082469665431
atom 4.1687465620537347 15.7337607205575765 2.0573217828978358 Se
    velocity 0.8775654881119145 2.5935802093161056 -0.1906166182776362
atom 15.8032724169407537 15.7337607205575765 2.0573217828978358 Se
    velocity -0.5855428987318056 -2.7206882505771763 -1.1429031932791878
atom 4.1687465620537347 3.1467521441115132 6.4615433078648463 Se
    velocity 0.9276374267471792 -0.8543572366936227 0.4635372892645845
atom 15.8032724169407537 3.1467521441115132 6.4615433078648463 Se
    velocity -0.9398353943465428 -3.4828875399726882 3.1677911784485340
atom 4.1687465620537347 7.3424216695935351 6.4615433078648463 Se
    velocity -0.5796167713023140 1.2632249850171411 2.7109237035434108
atom 15.8032724169407537 7.3424216695935351 6.4615433078648463 Se
    velocity 2.5322239580938963 -1.6557611661016438 -1.1137864680128822
atom 4.1687465620537347 11.5380911950755554 6.4615433078648463 Se
    velocity -2.2348982446621659 -0.2571042039578581 -2.5779141047491261
atom 15.8032724169407537 11.5380911950755554 6.4615433078648463 Se
    velocity 0.3783650793178619 1.6851930577438425 0.9381618619968729
atom 4.1687465620537347 15.7337607205575765 6.4615433078648463 Se
    velocity 0.7548730515131885 1.2142562370738872 0.4691506210650727
atom 15.8032724169407537 15.7337607205575765 6.4615433078648463 Se
    velocity 4.0919193652263344 -0.9328786931032275 1.1475488928056623
atom 4.1687465620537347 3.1467521441115132 10.8657648328318555 Se
    velocity -0.7920590610490872 -3.7650357918067292 0.6086745802137410
atom 15.8032724169407537 3.1467521441115132 10.8657648328318555 Se
    velocity -0.6401492810578616 -2.8389855881443617 -2.5122279014469204
atom 4.1687465620537347 7.3424216695935351 10.8657648328318555 Se
    velocity 1.1186585631592267 -0.4249320777053919 -2.3948809299916380
atom 15.8032724169407537 7.3424216695935351 10.8657648328318555 Se
    velocity -1.9157873843958122 -2.7552051559313049 0.3229611010060864
atom 4.1687465620537347 11.5380911950755554 10.8657648328318555 Se
    velocity 1.1043714366197621 -1.6703649199024466 1.4264802553585645
atom 15.8032724169407537 11.5380911950755554 10.8657648328318555 Se
    velocity -1.1173681658161965 2.8465459760807086 -0.1142142256474701
atom 4.1687465620537347 15.7337607205575765 10.8657648328318555 Se
    velocity -0.1273485272474381 -0.0497494734741298 -0.1626205555249683
atom 15.8032724169407537 15.7337607205575765 10.8657648328318555 Se
    velocity -1.6180393566980191 -0.8167686877956132 -2.7248634192356365
atom 4.1687465620537347 3.1467521441115132 15.2699863577988655 Se
    velocity 4.6092342630230165 1.5059971653207487 -0.7194663765695931
atom 15.8032724169407537 3.1467521441115132 15.2699863577988655 Se
    velocity 0.7043697093392950 -0.8531473619362941 -0.0917787065636906
atom 4.1687465620537347 7.3424216695935351 15.2699863577988655 Se
    velocity -1.4202124690385594 3.3330760568120179 -0.1327885717714850
atom 15.8032724169407537 7.3424216695935351 15.2699863577988655 Se
    velocity 2.1776447494663538 1.7402994315121836 2.8067522706273369
atom 4.1687465620537347 11.5380911950755554 15.2699863577988655 Se
    velocity 0.9292425793768360 -2.7928101620505732 1.1749911845139893
atom 15.8032724169407537 11.5380911950755554 15.2699863577988655 Se
    velocity -5.0219673566637564 -1.2572464024530230 -4.9118991781807360
atom 4.1687465620537347 15.7337607205575765 15.2699863577988655 Se
    velocity 0.4951314495125103 2.9356205856999371 -0.3522374599792968
atom 15.8032724169407537 15.7337607205575765 15.2699863577988655 Se
    velocity 0.6849502208326753 0.0587278572100461 3.1120783196636075
atom 1.3954671058260488 3.1467521441115132 1.7527764623357616 Sn
    velocity 1.6801368049670486 -0.7674192381330812 -2.0725381982550402
atom 13.0299929607130682 3.1467521441115132 1.7527764623357616 Sn
    velocity -0.5370533266280375 1.4028284936998989 0.6380456895999742
atom 1.3954671058260488 7.3424216695935351 1.7527764623357616 Sn
    velocity -0.2588154804468905 0.8507911725132378 -0.7741006498361255
atom 13.0299929607130682 7.3424216695935351 1.7527764623357616 Sn
    velocity -0.5123433543805477 -1.9203229059456537 -2.7432399171262167
atom 1.3954671058260488 11.5380911950755554 1.7527764623357616 Sn
    velocity 0.5369302996387735 1.6582536344196479 -1.6185060126295736
atom 13.0299929607130682 11.5380911950755554 1.7527764623357616 Sn
    velocity -2.7044445616665094 1.1950176547749018 -1.3330198952829753
atom 1.3954671058260488 15.7337607205575765 1.7527764623357616 Sn
    velocity -1.7562119618696210 -0.0230668283738922 -0.2795166248787235
atom 13.0299929607130682 15.7337607205575765 1.7527764623357616 Sn
    velocity 0.7086030892577154 0.8204686865916562 0.6610100289100466
atom 1.3954671058260488 3.1467521441115132 6.1569979873027725 Sn
    velocity 0.2447526377388697 0.6675163744601939 1.5109449244795250
atom 13.0299929607130682 3.1467521441115132 6.1569979873027725 Sn
    velocity -1.8314599988328950 0.0740421297247038 -2.0815181489275014
atom 1.3954671058260488 7.3424216695935351 6.1569979873027725 Sn
    velocity -1.2833547409226576 0.4019709022167304 1.1496073304732075
atom 13.0299929607130682 7.3424216695935351 6.1569979873027725 Sn
    velocity -2.6449481227705083 -1.3148282504214241 -1.1330338526536285
atom 1.3954671058260488 11.5380911950755554 6.1569979873027725 Sn
    velocity -0.8579688904746710 0.5435834283506096 1.2054159171679804
atom 13.0299929607130682 11.5380911950755554 6.1569979873027725 Sn
    velocity 0.2675943285832856 2.2056909677506034 0.9500199664673030
atom 1.3954671058260488 15.7337607205575765 6.1569979873027725 Sn
    velocity 1.9470927670328737 -0.9278715804011114 -0.2857310212248074
atom 13.0299929607130682 15.7337607205575765 6.1569979873027725 Sn
    velocity 0.7381054850548007 -0.8298711742860234 1.0273573301645538
atom 1.3954671058260488 3.1467521441115132 10.5612195122697816 Sn
    velocity 0.8973610338453727 0.5257037784432358 2.0339188709160947
atom 13.0299929607130682 3.1467521441115132 10.5612195122697816 Sn
    velocity -0.6462269350345807 -1.1293951900468926 0.6455078839276184
atom 1.3954671058260488 7.3424216695935351 10.5612195122697816 Sn
    velocity 0.1394296279066194 2.3467900664148531 0.4213477861003984
atom 13.0299929607130682 7.3424216695935351 10.5612195122697816 Sn
    velocity 0.3670880535060762 -1.1831052654053889 1.0783577893721850
atom 1.3954671058260488 11.5380911950755554 10.5612195122697816 Sn
    velocity 2.1545073699958266 1.1043617486264139 -1.3307842230581979
atom 13.0299929607130682 11.5380911950755554 10.5612195122697816 Sn
    velocity 2.9078213347906328 0.6241397195720018 -2.4412027674328876
atom 1.3954671058260488 15.7337607205575765 10.5612195122697816 Sn
    velocity -0.3986557566761913 0.7316631064520314 -0.4910384094483871
atom 13.0299929607130682 15.7337607205575765 10.5612195122697816 Sn
    velocity 0.4212677874150498 -1.2716833982947680 1.4865765150880794
atom 1.3954671058260488 3.1467521441115132 14.9654410372367916 Sn
    velocity -2.7181789125932281 0.6401907802705409 -1.4238728852975933
atom 13.0299929607130682 3.1467521441115132 14.9654410372367916 Sn
    velocity -4.5729430396849056 0.5170515939800612 2.3262985030045531
atom 1.3954671058260488 7.3424216695935351 14.9654410372367916 Sn
    velocity -2.0974978402433955 -0.2480578066950743 -0.8428656836875272
atom 13.0299929607130682 7.3424216695935351 14.9654410372367916 Sn
    velocity 1.6691012849765527 1.0950099524657180 3.0867404174304953
atom 1.3954671058260488 11.5380911950755554 14.9654410372367916 Sn
    velocity 0.2256810290344059 -0.1876939784888484 2.3094198825488026
atom 13.0299929607130682 11.5380911950755554 14.9654410372367916 Sn
    velocity -1.6867421042408250 1.0623507637331011 -0.8518038532246800
atom 1.3954671058260488 15.7337607205575765 14.9654410372367916 Sn
    velocity 0.8127132472827382 3.3280758936956043 -1.2325849687442805
atom 13.0299929607130682 15.7337607205575765 14.9654410372367916 Sn
    velocity 1.0873665876553660 -1.1725351595060889 0.2661180338316930
atom 10.2390587490609892 1.0489173813705051 2.6514450626312485 Sn
    velocity -0.0129965050137011 0.4021285103137872 2.3628774321728900
atom 21.8735846039480109 1.0489173813705051 2.6514450626312485 Sn
    velocity -0.2892219091947234 3.0755769822618499 0.9834113009970115
atom 10.2390587490609892 5.2445869068525255 2.6514450626312485 Sn
    velocity 1.4820324711967694 -0.2091337782220483 -0.0045295621403064
atom 21.8735846039480109 5.2445869068525255 2.6514450626312485 Sn
    velocity 1.6720136886058046 -0.9343264474525975 0.3348690298653912
atom 10.2390587490609892 9.4402564323345448 2.6514450626312485 Sn
    velocity -0.2219087044667958 -1.8799356881206799 1.8617623154034162
atom 21.8735846039480109 9.4402564323345448 2.6514450626312485 Sn
    velocity -1.9338786105353702 1.4122089338413002 0.1403735508264144
atom 10.2390587490609892 13.6359259578165659 2.6514450626312485 Sn
    velocity 2.0652441583993202 -0.2606559604990055 0.3245630840624605
atom 21.8735846039480109 13.6359259578165659 2.6514450626312485 Sn
    velocity -0.2766250272595597 0.7216178673961632 -1.6380304340952552
atom 10.2390587490609892 1.0489173813705051 7.0556665875982576 Sn
    velocity 0.1819675502091134 0.4078028550985710 -0.9789984197305489
atom 21.8735846039480109 1.0489173813705051 7.0556665875982576 Sn
    velocity -0.4747638784291039 -2.6642499647263840 0.2584092261196055
atom 10.2390587490609892 5.2445869068525255 7.0556665875982576 Sn
    velocity -2.3331813715710465 0.2724764143953046 1.1269224056375473
atom 21.8735846039480109 5.2445869068525255 7.0556665875982576 Sn
    velocity -0.8860066128381912 0.2714059290207343 0.1039163792166617
atom 10.2390587490609892 9.4402564323345448 7.0556665875982576 Sn
    velocity 0.0631720346542795 1.8113440147520290 0.9618665584509142
atom 21.8735846039480109 9.4402564323345448 7.0556665875982576 Sn
    velocity 0.7818277916350620 -3.8971504731213908 0.9826310360250470
atom 10.2390587490609892 13.6359259578165659 7.0556665875982576 Sn
    velocity 1.4181793328812504 -1.2153265149369170 1.0924550276514473
atom 21.8735846039480109 13.6359259578165659 7.0556665875982576 Sn
    velocity -0.5517371521901514 -0.6422944180459832 -0.9427175352264080
atom 10.2390587490609892 1.0489173813705051 11.4598881125652685 Sn
    velocity 0.2343110822104117 1.0577043687670653 0.3715172910128079
atom 21.8735846039480109 1.0489173813705051 11.4598881125652685 Sn
    velocity 1.0758501130552904 -0.1863470330502390 -0.1030916901451258
atom 10.2390587490609892 5.2445869068525255 11.4598881125652685 Sn
    velocity -0.1007800687970791 0.1568883650093409 1.0281196128632064
atom 21.8735846039480109 5.2445869068525255 11.4598881125652685 Sn
    velocity -0.6084148334520709 -0.8799656630370866 0.2625869359724054
atom 10.2390587490609892 9.4402564323345448 11.4598881125652685 Sn
    velocity 1.3536360246179835 -0.3998644605941633 -1.5722408169638851
atom 21.8735846039480109 9.4402564323345448 11.4598881125652685 Sn
    velocity 0.8724909393035173 2.5420184357072833 -1.2769457252742304
atom 10.2390587490609892 13.6359259578165659 11.4598881125652685 Sn
    velocity -0.0426786837430662 1.4528754837835840 -0.9842250534405124
atom 21.8735846039480109 13.6359259578165659 11.4598881125652685 Sn
    velocity 0.4606431363854571 -0.2550764273950278 -3.3694519889763890
atom 10.2390587490609892 1.0489173813705051 15.8641096375322785 Sn
    velocity -0.7665382957121207 -0.7383860652831825 -1.1937730769783359
atom 21.8735846039480109 1.0489173813705051 15.8641096375322785 Sn
    velocity -1.1354846274959138 -0.8712664493320728 0.7355564263570226
atom 10.2390587490609892 5.2445869068525255 15.8641096375322785 Sn
    velocity -1.8681545794716943 -1.0848903252375810 -0.8946140018866897
atom 21.8735846039480109 5.2445869068525255 15.8641096375322785 Sn
    velocity -2.0282336606287297 0.1153384752775696 -0.2011826547000642
atom 10.2390587490609892 9.4402564323345448 15.8641096375322785 Sn
    velocity -2.0439979751262531 -0.9017502576854819 0.3502978232943285
atom 21.8735846039480109 9.4402564323345448 15.8641096375322785 Sn
    velocity 0.5401948865005207 1.2888702952763023 -0.3658866701774132
atom 10.2390587490609892 13.6359259578165659 15.8641096375322785 Sn
    velocity -1.5262844844059298 -0.9078038258331348 4.7747207695600933
atom 21.8735846039480109 13.6359259578165659 15.8641096375322785 Sn
    velocity -0.7433905094451144 -0.5305328612108854 -0.0778150978530053
atom 4.4217958216174580 1.0489173813705051 3.9548872248192688 Sn
    velocity -2.5255013420383232 1.4586146863378335 3.0374699108041288
atom 16.0563216765044778 1.0489173813705051 3.9548872248192688 Sn
    velocity 0.1244662468033652 -0.6846283755935418 0.9314295688886562
atom 4.4217958216174580 5.2445869068525255 3.9548872248192688 Sn
    velocity 2.0400470201553840 -0.1659146805292856 0.7491834518230069
atom 16.0563216765044778 5.2445869068525255 3.9548872248192688 Sn
    velocity -1.1086574720342797 -1.0750436943497295 2.0670363228058948
atom 4.4217958216174580 9.4402564323345448 3.9548872248192688 Sn
    velocity 0.0723211416965169 -0.6643195448067013 -0.9615730649073482
atom 16.0563216765044778 9.4402564323345448 3.9548872248192688 Sn
    velocity -0.4467689129963621 1.9377067522923650 0.6677740824173318
atom 4.4217958216174580 13.6359259578165659 3.9548872248192688 Sn
    velocity -0.8051763292534017 -0.2449249486000846 0.2011179587169038
atom 16.0563216765044778 13.6359259578165659 3.9548872248192688 Sn
    velocity -0.8275050065885339 -2.8476130752271689 -0.0929331666879464
atom 4.4217958216174580 1.0489173813705051 8.3591087497862766 Sn
    velocity 1.0691593348832267 -2.4204508283046327 -2.2381703703477696
atom 16.0563216765044778 1.0489173813705051 8.3591087497862766 Sn
    velocity -1.0903668995709583 1.2515976225594245 0.0433155712959644
atom 4.4217958216174580 5.2445869068525255 8.3591087497862766 Sn
    velocity -0.3914494203483843 2.4893109413085077 0.1365498826771409
atom 16.0563216765044778 5.2445869068525255 8.3591087497862766 Sn
    velocity -0.8989039991829392 0.1918008519522834 2.7600747939748254
atom 4.4217958216174580 9.4402564323345448 8.3591087497862766 Sn
    velocity 2.6185751230915439 -0.1475225681898510 0.7040018739554839
atom 16.0563216765044778 9.4402564323345448 8.3591087497862766 Sn
    velocity -0.4849847784288107 -0.1860241196154263 1.5674030602291507
atom 4.4217958216174580 13.6359259578165659 8.3591087497862766 Sn
    velocity 1.5130084877644301 -1.3860552926242162 0.1331487803787960
atom 16.0563216765044778 13.6359259578165659 8.3591087497862766 Sn
    velocity -2.3549813368373984 1.4002727481022665 1.6038595095897206
atom 4.4217958216174580 1.0489173813705051 12.7633302747532866 Sn
    velocity -0.4158646462697270 -0.7265577269364357 3.2280470240768451
atom 16.0563216765044778 1.0489173813705051 12.7633302747532866 Sn
    velocity -1.9510697223454698 -0.8456878369973019 -0.8651498188121185
atom 4.4217958216174580 5.2445869068525255 12.7633302747532866 Sn
    velocity -0.2871008383634677 -0.8486737911604985 -0.8132886880582876
atom 16.0563216765044778 5.2445869068525255 12.7633302747532866 Sn
    velocity 0.6230810196066616 0.0499139711878510 -0.7833410796072861