#=======================================================
# FHI-aims file: geometry.in.primitive.supercell_4000
# Created using the Atomic Simulation Environment (ASE)
# Fri Apr  7 17:34:28 2023

# Additional information:
#  Number of atoms:     4000
#  Spacegroup:          62
#  supercell:           True
#  supercell_matrix:    [5, 0, 0, 0, 10, 0, 0, 0, 10]
#  Supercell matrix:    [ 5  0  0  0 10  0  0  0 10]
#=======================================================
lattice_vector 58.1726292744350886 0.0000000000000000 0.0000000000000000 
lattice_vector 0.0000000000000000 41.9566952548202039 0.0000000000000000 
lattice_vector 0.0000000000000000 0.0000000000000000 44.0422152496701003 
atom_frac 0.1716616493710000 0.0750000000000000 0.0032875044719000 Se
atom_frac 0.3716616493710000 0.0750000000000000 0.0032875044719000 Se
atom_frac 0.5716616493709999 0.0750000000000000 0.0032875044719000 Se
atom_frac 0.7716616493710000 0.0750000000000000 0.0032875044719000 Se
atom_frac 0.9716616493710000 0.0750000000000000 0.0032875044719000 Se
atom_frac 0.1716616493710000 0.1750000000000000 0.0032875044719000 Se
atom_frac 0.3716616493710000 0.1750000000000000 0.0032875044719000 Se
atom_frac 0.5716616493709999 0.1750000000000000 0.0032875044719000 Se
atom_frac 0.7716616493710000 0.1750000000000000 0.0032875044719000 Se
atom_frac 0.9716616493710000 0.1750000000000000 0.0032875044719000 Se
atom_frac 0.1716616493710000 0.2750000000000000 0.0032875044719000 Se
atom_frac 0.3716616493710000 0.2750000000000000 0.0032875044719000 Se
atom_frac 0.5716616493709999 0.2750000000000000 0.0032875044719000 Se
atom_frac 0.7716616493710000 0.2750000000000000 0.0032875044719000 Se
atom_frac 0.9716616493710000 0.2750000000000000 0.0032875044719000 Se
atom_frac 0.1716616493710000 0.3750000000000000 0.0032875044719000 Se
atom_frac 0.3716616493710000 0.3750000000000000 0.0032875044719000 Se
atom_frac 0.5716616493709999 0.3750000000000000 0.0032875044719000 Se
atom_frac 0.7716616493710000 0.3750000000000000 0.0032875044719000 Se
atom_frac 0.9716616493710000 0.3750000000000000 0.0032875044719000 Se
atom_frac 0.1716616493710000 0.4750000000000000 0.0032875044719000 Se
atom_frac 0.3716616493710000 0.4750000000000000 0.0032875044719000 Se
atom_frac 0.5716616493709999 0.4750000000000000 0.0032875044719000 Se
atom_frac 0.7716616493710000 0.4750000000000000 0.0032875044719000 Se
atom_frac 0.9716616493710000 0.4750000000000000 0.0032875044719000 Se
atom_frac 0.1716616493710000 0.5750000000000001 0.0032875044719000 Se
atom_frac 0.3716616493710000 0.5750000000000001 0.0032875044719000 Se
atom_frac 0.5716616493709999 0.5750000000000001 0.0032875044719000 Se
atom_frac 0.7716616493710000 0.5750000000000001 0.0032875044719000 Se
atom_frac 0.9716616493710000 0.5750000000000001 0.0032875044719000 Se
atom_frac 0.1716616493710000 0.6750000000000000 0.0032875044719000 Se
atom_frac 0.3716616493710000 0.6750000000000000 0.0032875044719000 Se
atom_frac 0.5716616493709999 0.6750000000000000 0.0032875044719000 Se
atom_frac 0.7716616493710000 0.6750000000000000 0.0032875044719000 Se
atom_frac 0.9716616493710000 0.6750000000000000 0.0032875044719000 Se
atom_frac 0.1716616493710000 0.7750000000000001 0.0032875044719000 Se
atom_frac 0.3716616493710000 0.7750000000000001 0.0032875044719000 Se
atom_frac 0.5716616493709999 0.7750000000000001 0.0032875044719000 Se
atom_frac 0.7716616493710000 0.7750000000000001 0.0032875044719000 Se
atom_frac 0.9716616493710000 0.7750000000000001 0.0032875044719000 Se
atom_frac 0.1716616493710000 0.8750000000000000 0.0032875044719000 Se
atom_frac 0.3716616493710000 0.8750000000000000 0.0032875044719000 Se
atom_frac 0.5716616493709999 0.8750000000000000 0.0032875044719000 Se
atom_frac 0.7716616493710000 0.8750000000000000 0.0032875044719000 Se
atom_frac 0.9716616493710000 0.8750000000000000 0.0032875044719000 Se
atom_frac 0.1716616493710000 0.9750000000000002 0.0032875044719000 Se
atom_frac 0.3716616493710000 0.9750000000000002 0.0032875044719000 Se
atom_frac 0.5716616493709999 0.9750000000000002 0.0032875044719000 Se
atom_frac 0.7716616493710000 0.9750000000000002 0.0032875044719000 Se
atom_frac 0.9716616493710000 0.9750000000000002 0.0032875044719000 Se
atom_frac 0.1716616493710000 0.0750000000000000 0.1032875044719000 Se
atom_frac 0.3716616493710000 0.0750000000000000 0.1032875044719000 Se
atom_frac 0.5716616493709999 0.0750000000000000 0.1032875044719000 Se
atom_frac 0.7716616493710000 0.0750000000000000 0.1032875044719000 Se
atom_frac 0.9716616493710000 0.0750000000000000 0.1032875044719000 Se
atom_frac 0.1716616493710000 0.1750000000000000 0.1032875044719000 Se
atom_frac 0.3716616493710000 0.1750000000000000 0.1032875044719000 Se
atom_frac 0.5716616493709999 0.1750000000000000 0.1032875044719000 Se
atom_frac 0.7716616493710000 0.1750000000000000 0.1032875044719000 Se
atom_frac 0.9716616493710000 0.1750000000000000 0.1032875044719000 Se
atom_frac 0.1716616493710000 0.2750000000000000 0.1032875044719000 Se
atom_frac 0.3716616493710000 0.2750000000000000 0.1032875044719000 Se
atom_frac 0.5716616493709999 0.2750000000000000 0.1032875044719000 Se
atom_frac 0.7716616493710000 0.2750000000000000 0.1032875044719000 Se
atom_frac 0.9716616493710000 0.2750000000000000 0.1032875044719000 Se
atom_frac 0.1716616493710000 0.3750000000000000 0.1032875044719000 Se
atom_frac 0.3716616493710000 0.3750000000000000 0.1032875044719000 Se
atom_frac 0.5716616493709999 0.3750000000000000 0.1032875044719000 Se
atom_frac 0.7716616493710000 0.3750000000000000 0.1032875044719000 Se
atom_frac 0.9716616493710000 0.3750000000000000 0.1032875044719000 Se
atom_frac 0.1716616493710000 0.4750000000000000 0.1032875044719000 Se
atom_frac 0.3716616493710000 0.4750000000000000 0.1032875044719000 Se
atom_frac 0.5716616493709999 0.4750000000000000 0.1032875044719000 Se
atom_frac 0.7716616493710000 0.4750000000000000 0.1032875044719000 Se
atom_frac 0.9716616493710000 0.4750000000000000 0.1032875044719000 Se
atom_frac 0.1716616493710000 0.5750000000000001 0.1032875044719000 Se
atom_frac 0.3716616493710000 0.5750000000000001 0.1032875044719000 Se
atom_frac 0.5716616493709999 0.5750000000000001 0.1032875044719000 Se
atom_frac 0.7716616493710000 0.5750000000000001 0.1032875044719000 Se
atom_frac 0.9716616493710000 0.5750000000000001 0.1032875044719000 Se
atom_frac 0.1716616493710000 0.6750000000000000 0.1032875044719000 Se
atom_frac 0.3716616493710000 0.6750000000000000 0.1032875044719000 Se
atom_frac 0.5716616493709999 0.6750000000000000 0.1032875044719000 Se
atom_frac 0.7716616493710000 0.6750000000000000 0.1032875044719000 Se
atom_frac 0.9716616493710000 0.6750000000000000 0.1032875044719000 Se
atom_frac 0.1716616493710000 0.7750000000000001 0.1032875044719000 Se
atom_frac 0.3716616493710000 0.7750000000000001 0.1032875044719000 Se
atom_frac 0.5716616493709999 0.7750000000000001 0.1032875044719000 Se
atom_frac 0.7716616493710000 0.7750000000000001 0.1032875044719000 Se
atom_frac 0.9716616493710000 0.7750000000000001 0.1032875044719000 Se
atom_frac 0.1716616493710000 0.8750000000000000 0.1032875044719000 Se
atom_frac 0.3716616493710000 0.8750000000000000 0.1032875044719000 Se
atom_frac 0.5716616493709999 0.8750000000000000 0.1032875044719000 Se
atom_frac 0.7716616493710000 0.8750000000000000 0.1032875044719000 Se
atom_frac 0.9716616493710000 0.8750000000000000 0.1032875044719000 Se
atom_frac 0.1716616493710000 0.9750000000000002 0.1032875044719000 Se
atom_frac 0.3716616493710000 0.9750000000000002 0.1032875044719000 Se
atom_frac 0.5716616493709999 0.9750000000000002 0.1032875044719000 Se
atom_frac 0.7716616493710000 0.9750000000000002 0.1032875044719000 Se
atom_frac 0.9716616493710000 0.9750000000000002 0.1032875044719000 Se
atom_frac 0.1716616493710000 0.0750000000000000 0.2032875044719000 Se
atom_frac 0.3716616493710000 0.0750000000000000 0.2032875044719000 Se
atom_frac 0.5716616493709999 0.0750000000000000 0.2032875044719000 Se
atom_frac 0.7716616493710000 0.0750000000000000 0.2032875044719000 Se
atom_frac 0.9716616493710000 0.0750000000000000 0.2032875044719000 Se
atom_frac 0.1716616493710000 0.1750000000000000 0.2032875044719000 Se
atom_frac 0.3716616493710000 0.1750000000000000 0.2032875044719000 Se
atom_frac 0.5716616493709999 0.1750000000000000 0.2032875044719000 Se
atom_frac 0.7716616493710000 0.1750000000000000 0.2032875044719000 Se
atom_frac 0.9716616493710000 0.1750000000000000 0.2032875044719000 Se
atom_frac 0.1716616493710000 0.2750000000000000 0.2032875044719000 Se
atom_frac 0.3716616493710000 0.2750000000000000 0.2032875044719000 Se
atom_frac 0.5716616493709999 0.2750000000000000 0.2032875044719000 Se
atom_frac 0.7716616493710000 0.2750000000000000 0.2032875044719000 Se
atom_frac 0.9716616493710000 0.2750000000000000 0.2032875044719000 Se
atom_frac 0.1716616493710000 0.3750000000000000 0.2032875044719000 Se
atom_frac 0.3716616493710000 0.3750000000000000 0.2032875044719000 Se
atom_frac 0.5716616493709999 0.3750000000000000 0.2032875044719000 Se
atom_frac 0.7716616493710000 0.3750000000000000 0.2032875044719000 Se
atom_frac 0.9716616493710000 0.3750000000000000 0.2032875044719000 Se
atom_frac 0.1716616493710000 0.4750000000000000 0.2032875044719000 Se
atom_frac 0.3716616493710000 0.4750000000000000 0.2032875044719000 Se
atom_frac 0.5716616493709999 0.4750000000000000 0.2032875044719000 Se
atom_frac 0.7716616493710000 0.4750000000000000 0.2032875044719000 Se
atom_frac 0.9716616493710000 0.4750000000000000 0.2032875044719000 Se
atom_frac 0.1716616493710000 0.5750000000000001 0.2032875044719000 Se
atom_frac 0.3716616493710000 0.5750000000000001 0.2032875044719000 Se
atom_frac 0.5716616493709999 0.5750000000000001 0.2032875044719000 Se
atom_frac 0.7716616493710000 0.5750000000000001 0.2032875044719000 Se
atom_frac 0.9716616493710000 0.5750000000000001 0.2032875044719000 Se
atom_frac 0.1716616493710000 0.6750000000000000 0.2032875044719000 Se
atom_frac 0.3716616493710000 0.6750000000000000 0.2032875044719000 Se
atom_frac 0.5716616493709999 0.6750000000000000 0.2032875044719000 Se
atom_frac 0.7716616493710000 0.6750000000000000 0.2032875044719000 Se
atom_frac 0.9716616493710000 0.6750000000000000 0.2032875044719000 Se
atom_frac 0.1716616493710000 0.7750000000000001 0.2032875044719000 Se
atom_frac 0.3716616493710000 0.7750000000000001 0.2032875044719000 Se
atom_frac 0.5716616493709999 0.7750000000000001 0.2032875044719000 Se
atom_frac 0.7716616493710000 0.7750000000000001 0.2032875044719000 Se
atom_frac 0.9716616493710000 0.7750000000000001 0.2032875044719000 Se
atom_frac 0.1716616493710000 0.8750000000000000 0.2032875044719000 Se
atom_frac 0.3716616493710000 0.8750000000000000 0.2032875044719000 Se
atom_frac 0.5716616493709999 0.8750000000000000 0.2032875044719000 Se
atom_frac 0.7716616493710000 0.8750000000000000 0.2032875044719000 Se
atom_frac 0.9716616493710000 0.8750000000000000 0.2032875044719000 Se
atom_frac 0.1716616493710000 0.9750000000000002 0.2032875044719000 Se
atom_frac 0.3716616493710000 0.9750000000000002 0.2032875044719000 Se
atom_frac 0.5716616493709999 0.9750000000000002 0.2032875044719000 Se
atom_frac 0.7716616493710000 0.9750000000000002 0.2032875044719000 Se
atom_frac 0.9716616493710000 0.9750000000000002 0.2032875044719000 Se
atom_frac 0.1716616493710000 0.0750000000000000 0.3032875044719000 Se
atom_frac 0.3716616493710000 0.0750000000000000 0.3032875044719000 Se
atom_frac 0.5716616493709999 0.0750000000000000 0.3032875044719000 Se
atom_frac 0.7716616493710000 0.0750000000000000 0.3032875044719000 Se
atom_frac 0.9716616493710000 0.0750000000000000 0.3032875044719000 Se
atom_frac 0.1716616493710000 0.1750000000000000 0.3032875044719000 Se
atom_frac 0.3716616493710000 0.1750000000000000 0.3032875044719000 Se
atom_frac 0.5716616493709999 0.1750000000000000 0.3032875044719000 Se
atom_frac 0.7716616493710000 0.1750000000000000 0.3032875044719000 Se
atom_frac 0.9716616493710000 0.1750000000000000 0.3032875044719000 Se
atom_frac 0.1716616493710000 0.2750000000000000 0.3032875044719000 Se
atom_frac 0.3716616493710000 0.2750000000000000 0.3032875044719000 Se
atom_frac 0.5716616493709999 0.2750000000000000 0.3032875044719000 Se
atom_frac 0.7716616493710000 0.2750000000000000 0.3032875044719000 Se
atom_frac 0.9716616493710000 0.2750000000000000 0.3032875044719000 Se
atom_frac 0.1716616493710000 0.3750000000000000 0.3032875044719000 Se
atom_frac 0.3716616493710000 0.3750000000000000 0.3032875044719000 Se
atom_frac 0.5716616493709999 0.3750000000000000 0.3032875044719000 Se
atom_frac 0.7716616493710000 0.3750000000000000 0.3032875044719000 Se
atom_frac 0.9716616493710000 0.3750000000000000 0.3032875044719000 Se
atom_frac 0.1716616493710000 0.4750000000000000 0.3032875044719000 Se
atom_frac 0.3716616493710000 0.4750000000000000 0.3032875044719000 Se
atom_frac 0.5716616493709999 0.4750000000000000 0.3032875044719000 Se
atom_frac 0.7716616493710000 0.4750000000000000 0.3032875044719000 Se
atom_frac 0.9716616493710000 0.4750000000000000 0.3032875044719000 Se
atom_frac 0.1716616493710000 0.5750000000000001 0.3032875044719000 Se
atom_frac 0.3716616493710000 0.5750000000000001 0.3032875044719000 Se
atom_frac 0.5716616493709999 0.5750000000000001 0.3032875044719000 Se
atom_frac 0.7716616493710000 0.5750000000000001 0.3032875044719000 Se
atom_frac 0.9716616493710000 0.5750000000000001 0.3032875044719000 Se
atom_frac 0.1716616493710000 0.6750000000000000 0.3032875044719000 Se
atom_frac 0.3716616493710000 0.6750000000000000 0.3032875044719000 Se
atom_frac 0.5716616493709999 0.6750000000000000 0.3032875044719000 Se
atom_frac 0.7716616493710000 0.6750000000000000 0.3032875044719000 Se
atom_frac 0.9716616493710000 0.6750000000000000 0.3032875044719000 Se
atom_frac 0.1716616493710000 0.7750000000000001 0.3032875044719000 Se
atom_frac 0.3716616493710000 0.7750000000000001 0.3032875044719000 Se
atom_frac 0.5716616493709999 0.7750000000000001 0.3032875044719000 Se
atom_frac 0.7716616493710000 0.7750000000000001 0.3032875044719000 Se
atom_frac 0.9716616493710000 0.7750000000000001 0.3032875044719000 Se
atom_frac 0.1716616493710000 0.8750000000000000 0.3032875044719000 Se
atom_frac 0.3716616493710000 0.8750000000000000 0.3032875044719000 Se
atom_frac 0.5716616493709999 0.8750000000000000 0.3032875044719000 Se
atom_frac 0.7716616493710000 0.8750000000000000 0.3032875044719000 Se
atom_frac 0.9716616493710000 0.8750000000000000 0.3032875044719000 Se
atom_frac 0.1716616493710000 0.9750000000000002 0.3032875044719000 Se
atom_frac 0.3716616493710000 0.9750000000000002 0.3032875044719000 Se
atom_frac 0.5716616493709999 0.9750000000000002 0.3032875044719000 Se
atom_frac 0.7716616493710000 0.9750000000000002 0.3032875044719000 Se
atom_frac 0.9716616493710000 0.9750000000000002 0.3032875044719000 Se
atom_frac 0.1716616493710000 0.0750000000000000 0.4032875044719000 Se
atom_frac 0.3716616493710000 0.0750000000000000 0.4032875044719000 Se
atom_frac 0.5716616493709999 0.0750000000000000 0.4032875044719000 Se
atom_frac 0.7716616493710000 0.0750000000000000 0.4032875044719000 Se
atom_frac 0.9716616493710000 0.0750000000000000 0.4032875044719000 Se
atom_frac 0.1716616493710000 0.1750000000000000 0.4032875044719000 Se
atom_frac 0.3716616493710000 0.1750000000000000 0.4032875044719000 Se
atom_frac 0.5716616493709999 0.1750000000000000 0.4032875044719000 Se
atom_frac 0.7716616493710000 0.1750000000000000 0.4032875044719000 Se
atom_frac 0.9716616493710000 0.1750000000000000 0.4032875044719000 Se
atom_frac 0.1716616493710000 0.2750000000000000 0.4032875044719000 Se
atom_frac 0.3716616493710000 0.2750000000000000 0.4032875044719000 Se
atom_frac 0.5716616493709999 0.2750000000000000 0.4032875044719000 Se
atom_frac 0.7716616493710000 0.2750000000000000 0.4032875044719000 Se
atom_frac 0.9716616493710000 0.2750000000000000 0.4032875044719000 Se
atom_frac 0.1716616493710000 0.3750000000000000 0.4032875044719000 Se
atom_frac 0.3716616493710000 0.3750000000000000 0.4032875044719000 Se
atom_frac 0.5716616493709999 0.3750000000000000 0.4032875044719000 Se
atom_frac 0.7716616493710000 0.3750000000000000 0.4032875044719000 Se
atom_frac 0.9716616493710000 0.3750000000000000 0.4032875044719000 Se
atom_frac 0.1716616493710000 0.4750000000000000 0.4032875044719000 Se
atom_frac 0.3716616493710000 0.4750000000000000 0.4032875044719000 Se
atom_frac 0.5716616493709999 0.4750000000000000 0.4032875044719000 Se
atom_frac 0.7716616493710000 0.4750000000000000 0.4032875044719000 Se
atom_frac 0.9716616493710000 0.4750000000000000 0.4032875044719000 Se
atom_frac 0.1716616493710000 0.5750000000000001 0.4032875044719000 Se
atom_frac 0.3716616493710000 0.5750000000000001 0.4032875044719000 Se
atom_frac 0.5716616493709999 0.5750000000000001 0.4032875044719000 Se
atom_frac 0.7716616493710000 0.5750000000000001 0.4032875044719000 Se
atom_frac 0.9716616493710000 0.5750000000000001 0.4032875044719000 Se
atom_frac 0.1716616493710000 0.6750000000000000 0.4032875044719000 Se
atom_frac 0.3716616493710000 0.6750000000000000 0.4032875044719000 Se
atom_frac 0.5716616493709999 0.6750000000000000 0.4032875044719000 Se
atom_frac 0.7716616493710000 0.6750000000000000 0.4032875044719000 Se
atom_frac 0.9716616493710000 0.6750000000000000 0.4032875044719000 Se
atom_frac 0.1716616493710000 0.7750000000000001 0.4032875044719000 Se
atom_frac 0.3716616493710000 0.7750000000000001 0.4032875044719000 Se
atom_frac 0.5716616493709999 0.7750000000000001 0.4032875044719000 Se
atom_frac 0.7716616493710000 0.7750000000000001 0.4032875044719000 Se
atom_frac 0.9716616493710000 0.7750000000000001 0.4032875044719000 Se
atom_frac 0.1716616493710000 0.8750000000000000 0.4032875044719000 Se
atom_frac 0.3716616493710000 0.8750000000000000 0.4032875044719000 Se
atom_frac 0.5716616493709999 0.8750000000000000 0.4032875044719000 Se
atom_frac 0.7716616493710000 0.8750000000000000 0.4032875044719000 Se
atom_frac 0.9716616493710000 0.8750000000000000 0.4032875044719000 Se
atom_frac 0.1716616493710000 0.9750000000000002 0.4032875044719000 Se
atom_frac 0.3716616493710000 0.9750000000000002 0.4032875044719000 Se
atom_frac 0.5716616493709999 0.9750000000000002 0.4032875044719000 Se
atom_frac 0.7716616493710000 0.9750000000000002 0.4032875044719000 Se
atom_frac 0.9716616493710000 0.9750000000000002 0.4032875044719000 Se
atom_frac 0.1716616493710000 0.0750000000000000 0.5032875044718998 Se
atom_frac 0.3716616493710000 0.0750000000000000 0.5032875044718998 Se
atom_frac 0.5716616493709999 0.0750000000000000 0.5032875044718998 Se
atom_frac 0.7716616493710000 0.0750000000000000 0.5032875044718998 Se
atom_frac 0.9716616493710000 0.0750000000000000 0.5032875044718998 Se
atom_frac 0.1716616493710000 0.1750000000000000 0.5032875044718998 Se
atom_frac 0.3716616493710000 0.1750000000000000 0.5032875044718998 Se
atom_frac 0.5716616493709999 0.1750000000000000 0.5032875044718998 Se
atom_frac 0.7716616493710000 0.1750000000000000 0.5032875044718998 Se
atom_frac 0.9716616493710000 0.1750000000000000 0.5032875044718998 Se
atom_frac 0.1716616493710000 0.2750000000000000 0.5032875044718998 Se
atom_frac 0.3716616493710000 0.2750000000000000 0.5032875044718998 Se
atom_frac 0.5716616493709999 0.2750000000000000 0.5032875044718998 Se
atom_frac 0.7716616493710000 0.2750000000000000 0.5032875044718998 Se
atom_frac 0.9716616493710000 0.2750000000000000 0.5032875044718998 Se
atom_frac 0.1716616493710000 0.3750000000000000 0.5032875044718998 Se
atom_frac 0.3716616493710000 0.3750000000000000 0.5032875044718998 Se
atom_frac 0.5716616493709999 0.3750000000000000 0.5032875044718998 Se
atom_frac 0.7716616493710000 0.3750000000000000 0.5032875044718998 Se
atom_frac 0.9716616493710000 0.3750000000000000 0.5032875044718998 Se
atom_frac 0.1716616493710000 0.4750000000000000 0.5032875044718998 Se
atom_frac 0.3716616493710000 0.4750000000000000 0.5032875044718998 Se
atom_frac 0.5716616493709999 0.4750000000000000 0.5032875044718998 Se
atom_frac 0.7716616493710000 0.4750000000000000 0.5032875044718998 Se
atom_frac 0.9716616493710000 0.4750000000000000 0.5032875044718998 Se
atom_frac 0.1716616493710000 0.5750000000000001 0.5032875044718998 Se
atom_frac 0.3716616493710000 0.5750000000000001 0.5032875044718998 Se
atom_frac 0.5716616493709999 0.5750000000000001 0.5032875044718998 Se
atom_frac 0.7716616493710000 0.5750000000000001 0.5032875044718998 Se
atom_frac 0.9716616493710000 0.5750000000000001 0.5032875044718998 Se
atom_frac 0.1716616493710000 0.6750000000000000 0.5032875044718998 Se
atom_frac 0.3716616493710000 0.6750000000000000 0.5032875044718998 Se
atom_frac 0.5716616493709999 0.6750000000000000 0.5032875044718998 Se
atom_frac 0.7716616493710000 0.6750000000000000 0.5032875044718998 Se
atom_frac 0.9716616493710000 0.6750000000000000 0.5032875044718998 Se
atom_frac 0.1716616493710000 0.7750000000000001 0.5032875044718998 Se
atom_frac 0.3716616493710000 0.7750000000000001 0.5032875044718998 Se
atom_frac 0.5716616493709999 0.7750000000000001 0.5032875044718998 Se
atom_frac 0.7716616493710000 0.7750000000000001 0.5032875044718998 Se
atom_frac 0.9716616493710000 0.7750000000000001 0.5032875044718998 Se
atom_frac 0.1716616493710000 0.8750000000000000 0.5032875044718998 Se
atom_frac 0.3716616493710000 0.8750000000000000 0.5032875044718998 Se
atom_frac 0.5716616493709999 0.8750000000000000 0.5032875044718998 Se
atom_frac 0.7716616493710000 0.8750000000000000 0.5032875044718998 Se
atom_frac 0.9716616493710000 0.8750000000000000 0.5032875044718998 Se
atom_frac 0.1716616493710000 0.9750000000000002 0.5032875044718998 Se
atom_frac 0.3716616493710000 0.9750000000000002 0.5032875044718998 Se
atom_frac 0.5716616493709999 0.9750000000000002 0.5032875044718998 Se
atom_frac 0.7716616493710000 0.9750000000000002 0.5032875044718998 Se
atom_frac 0.9716616493710000 0.9750000000000002 0.5032875044718998 Se
atom_frac 0.1716616493710000 0.0750000000000000 0.6032875044719000 Se
atom_frac 0.3716616493710000 0.0750000000000000 0.6032875044719000 Se
atom_frac 0.5716616493709999 0.0750000000000000 0.6032875044719000 Se
atom_frac 0.7716616493710000 0.0750000000000000 0.6032875044719000 Se
atom_frac 0.9716616493710000 0.0750000000000000 0.6032875044719000 Se
atom_frac 0.1716616493710000 0.1750000000000000 0.6032875044719000 Se
atom_frac 0.3716616493710000 0.1750000000000000 0.6032875044719000 Se
atom_frac 0.5716616493709999 0.1750000000000000 0.6032875044719000 Se
atom_frac 0.7716616493710000 0.1750000000000000 0.6032875044719000 Se
atom_frac 0.9716616493710000 0.1750000000000000 0.6032875044719000 Se
atom_frac 0.1716616493710000 0.2750000000000000 0.6032875044719000 Se
atom_frac 0.3716616493710000 0.2750000000000000 0.6032875044719000 Se
atom_frac 0.5716616493709999 0.2750000000000000 0.6032875044719000 Se
atom_frac 0.7716616493710000 0.2750000000000000 0.6032875044719000 Se
atom_frac 0.9716616493710000 0.2750000000000000 0.6032875044719000 Se
atom_frac 0.1716616493710000 0.3750000000000000 0.6032875044719000 Se
atom_frac 0.3716616493710000 0.3750000000000000 0.6032875044719000 Se
atom_frac 0.5716616493709999 0.3750000000000000 0.6032875044719000 Se
atom_frac 0.7716616493710000 0.3750000000000000 0.6032875044719000 Se
atom_frac 0.9716616493710000 0.3750000000000000 0.6032875044719000 Se
atom_frac 0.1716616493710000 0.4750000000000000 0.6032875044719000 Se
atom_frac 0.3716616493710000 0.4750000000000000 0.6032875044719000 Se
atom_frac 0.5716616493709999 0.4750000000000000 0.6032875044719000 Se
atom_frac 0.7716616493710000 0.4750000000000000 0.6032875044719000 Se
atom_frac 0.9716616493710000 0.4750000000000000 0.6032875044719000 Se
atom_frac 0.1716616493710000 0.5750000000000001 0.6032875044719000 Se
atom_frac 0.3716616493710000 0.5750000000000001 0.6032875044719000 Se
atom_frac 0.5716616493709999 0.5750000000000001 0.6032875044719000 Se
atom_frac 0.7716616493710000 0.5750000000000001 0.6032875044719000 Se
atom_frac 0.9716616493710000 0.5750000000000001 0.6032875044719000 Se
atom_frac 0.1716616493710000 0.6750000000000000 0.6032875044719000 Se
atom_frac 0.3716616493710000 0.6750000000000000 0.6032875044719000 Se
atom_frac 0.5716616493709999 0.6750000000000000 0.6032875044719000 Se
atom_frac 0.7716616493710000 0.6750000000000000 0.6032875044719000 Se
atom_frac 0.9716616493710000 0.6750000000000000 0.6032875044719000 Se
atom_frac 0.1716616493710000 0.7750000000000001 0.6032875044719000 Se
atom_frac 0.3716616493710000 0.7750000000000001 0.6032875044719000 Se
atom_frac 0.5716616493709999 0.7750000000000001 0.6032875044719000 Se
atom_frac 0.7716616493710000 0.7750000000000001 0.6032875044719000 Se
atom_frac 0.9716616493710000 0.7750000000000001 0.6032875044719000 Se
atom_frac 0.1716616493710000 0.8750000000000000 0.6032875044719000 Se
atom_frac 0.3716616493710000 0.8750000000000000 0.6032875044719000 Se
atom_frac 0.5716616493709999 0.8750000000000000 0.6032875044719000 Se
atom_frac 0.7716616493710000 0.8750000000000000 0.6032875044719000 Se
atom_frac 0.9716616493710000 0.8750000000000000 0.6032875044719000 Se
atom_frac 0.1716616493710000 0.9750000000000002 0.6032875044719000 Se
atom_frac 0.3716616493710000 0.9750000000000002 0.6032875044719000 Se
atom_frac 0.5716616493709999 0.9750000000000002 0.6032875044719000 Se
atom_frac 0.7716616493710000 0.9750000000000002 0.6032875044719000 Se
atom_frac 0.9716616493710000 0.9750000000000002 0.6032875044719000 Se
atom_frac 0.1716616493710000 0.0750000000000000 0.7032875044718999 Se
atom_frac 0.3716616493710000 0.0750000000000000 0.7032875044718999 Se
atom_frac 0.5716616493709999 0.0750000000000000 0.7032875044718999 Se
atom_frac 0.7716616493710000 0.0750000000000000 0.7032875044718999 Se
atom_frac 0.9716616493710000 0.0750000000000000 0.7032875044718999 Se
atom_frac 0.1716616493710000 0.1750000000000000 0.7032875044718999 Se
atom_frac 0.3716616493710000 0.1750000000000000 0.7032875044718999 Se
atom_frac 0.5716616493709999 0.1750000000000000 0.7032875044718999 Se
atom_frac 0.7716616493710000 0.1750000000000000 0.7032875044718999 Se
atom_frac 0.9716616493710000 0.1750000000000000 0.7032875044718999 Se
atom_frac 0.1716616493710000 0.2750000000000000 0.7032875044718999 Se
atom_frac 0.3716616493710000 0.2750000000000000 0.7032875044718999 Se
atom_frac 0.5716616493709999 0.2750000000000000 0.7032875044718999 Se
atom_frac 0.7716616493710000 0.2750000000000000 0.7032875044718999 Se
atom_frac 0.9716616493710000 0.2750000000000000 0.7032875044718999 Se
atom_frac 0.1716616493710000 0.3750000000000000 0.7032875044718999 Se
atom_frac 0.3716616493710000 0.3750000000000000 0.7032875044718999 Se
atom_frac 0.5716616493709999 0.3750000000000000 0.7032875044718999 Se
atom_frac 0.7716616493710000 0.3750000000000000 0.7032875044718999 Se
atom_frac 0.9716616493710000 0.3750000000000000 0.7032875044718999 Se
atom_frac 0.1716616493710000 0.4750000000000000 0.7032875044718999 Se
atom_frac 0.3716616493710000 0.4750000000000000 0.7032875044718999 Se
atom_frac 0.5716616493709999 0.4750000000000000 0.7032875044718999 Se
atom_frac 0.7716616493710000 0.4750000000000000 0.7032875044718999 Se
atom_frac 0.9716616493710000 0.4750000000000000 0.7032875044718999 Se
atom_frac 0.1716616493710000 0.5750000000000001 0.7032875044718999 Se
atom_frac 0.3716616493710000 0.5750000000000001 0.7032875044718999 Se
atom_frac 0.5716616493709999 0.5750000000000001 0.7032875044718999 Se
atom_frac 0.7716616493710000 0.5750000000000001 0.7032875044718999 Se
atom_frac 0.9716616493710000 0.5750000000000001 0.7032875044718999 Se
atom_frac 0.1716616493710000 0.6750000000000000 0.7032875044718999 Se
atom_frac 0.3716616493710000 0.6750000000000000 0.7032875044718999 Se
atom_frac 0.5716616493709999 0.6750000000000000 0.7032875044718999 Se
atom_frac 0.7716616493710000 0.6750000000000000 0.7032875044718999 Se
atom_frac 0.9716616493710000 0.6750000000000000 0.7032875044718999 Se
atom_frac 0.1716616493710000 0.7750000000000001 0.7032875044718999 Se
atom_frac 0.3716616493710000 0.7750000000000001 0.7032875044718999 Se
atom_frac 0.5716616493709999 0.7750000000000001 0.7032875044718999 Se
atom_frac 0.7716616493710000 0.7750000000000001 0.7032875044718999 Se
atom_frac 0.9716616493710000 0.7750000000000001 0.7032875044718999 Se
atom_frac 0.1716616493710000 0.8750000000000000 0.7032875044718999 Se
atom_frac 0.3716616493710000 0.8750000000000000 0.7032875044718999 Se
atom_frac 0.5716616493709999 0.8750000000000000 0.7032875044718999 Se
atom_frac 0.7716616493710000 0.8750000000000000 0.7032875044718999 Se
atom_frac 0.9716616493710000 0.8750000000000000 0.7032875044718999 Se
atom_frac 0.1716616493710000 0.9750000000000002 0.7032875044718999 Se
atom_frac 0.3716616493710000 0.9750000000000002 0.7032875044718999 Se
atom_frac 0.5716616493709999 0.9750000000000002 0.7032875044718999 Se
atom_frac 0.7716616493710000 0.9750000000000002 0.7032875044718999 Se
atom_frac 0.9716616493710000 0.9750000000000002 0.7032875044718999 Se
atom_frac 0.1716616493710000 0.0750000000000000 0.8032875044719000 Se
atom_frac 0.3716616493710000 0.0750000000000000 0.8032875044719000 Se
atom_frac 0.5716616493709999 0.0750000000000000 0.8032875044719000 Se
atom_frac 0.7716616493710000 0.0750000000000000 0.8032875044719000 Se
atom_frac 0.9716616493710000 0.0750000000000000 0.8032875044719000 Se
atom_frac 0.1716616493710000 0.1750000000000000 0.8032875044719000 Se
atom_frac 0.3716616493710000 0.1750000000000000 0.8032875044719000 Se
atom_frac 0.5716616493709999 0.1750000000000000 0.8032875044719000 Se
atom_frac 0.7716616493710000 0.1750000000000000 0.8032875044719000 Se
atom_frac 0.9716616493710000 0.1750000000000000 0.8032875044719000 Se
atom_frac 0.1716616493710000 0.2750000000000000 0.8032875044719000 Se
atom_frac 0.3716616493710000 0.2750000000000000 0.8032875044719000 Se
atom_frac 0.5716616493709999 0.2750000000000000 0.8032875044719000 Se
atom_frac 0.7716616493710000 0.2750000000000000 0.8032875044719000 Se
atom_frac 0.9716616493710000 0.2750000000000000 0.8032875044719000 Se
atom_frac 0.1716616493710000 0.3750000000000000 0.8032875044719000 Se
atom_frac 0.3716616493710000 0.3750000000000000 0.8032875044719000 Se
atom_frac 0.5716616493709999 0.3750000000000000 0.8032875044719000 Se