#=======================================================
# FHI-aims file: geometry.in.primitive.supercell_256
# Created using the Atomic Simulation Environment (ASE)
# Fri Apr  7 17:34:00 2023

# Additional information:
#  Number of atoms:     256
#  Spacegroup:          62
#  supercell:           True
#  supercell_matrix:    [2, 0, 0, 0, 4, 0, 0, 0, 4]
#  Supercell matrix:    [2 0 0 0 4 0 0 0 4]
#=======================================================
lattice_vector 23.2690517097740361 0.0000000000000000 0.0000000000000000 
lattice_vector 0.0000000000000000 16.7826781019280808 0.0000000000000000 
lattice_vector 0.0000000000000000 0.0000000000000000 17.6168860998680401 
atom_frac 0.4291541234275000 0.1874999999999999 0.0082187611797500 Se
atom_frac 0.9291541234275000 0.1874999999999999 0.0082187611797500 Se
atom_frac 0.4291541234275000 0.4375000000000000 0.0082187611797500 Se
atom_frac 0.9291541234275000 0.4375000000000000 0.0082187611797500 Se
atom_frac 0.4291541234275000 0.6875000000000000 0.0082187611797500 Se
atom_frac 0.9291541234275000 0.6875000000000000 0.0082187611797500 Se
atom_frac 0.4291541234275000 0.9375000000000000 0.0082187611797500 Se
atom_frac 0.9291541234275000 0.9375000000000000 0.0082187611797500 Se
atom_frac 0.4291541234275000 0.1874999999999999 0.2582187611797500 Se
atom_frac 0.9291541234275000 0.1874999999999999 0.2582187611797500 Se
atom_frac 0.4291541234275000 0.4375000000000000 0.2582187611797500 Se
atom_frac 0.9291541234275000 0.4375000000000000 0.2582187611797500 Se
atom_frac 0.4291541234275000 0.6875000000000000 0.2582187611797500 Se
atom_frac 0.9291541234275000 0.6875000000000000 0.2582187611797500 Se
atom_frac 0.4291541234275000 0.9375000000000000 0.2582187611797500 Se
atom_frac 0.9291541234275000 0.9375000000000000 0.2582187611797500 Se
atom_frac 0.4291541234275000 0.1874999999999999 0.5082187611797500 Se
atom_frac 0.9291541234275000 0.1874999999999999 0.5082187611797500 Se
atom_frac 0.4291541234275000 0.4375000000000000 0.5082187611797500 Se
atom_frac 0.9291541234275000 0.4375000000000000 0.5082187611797500 Se
atom_frac 0.4291541234275000 0.6875000000000000 0.5082187611797500 Se
atom_frac 0.9291541234275000 0.6875000000000000 0.5082187611797500 Se
atom_frac 0.4291541234275000 0.9375000000000000 0.5082187611797500 Se
atom_frac 0.9291541234275000 0.9375000000000000 0.5082187611797500 Se
atom_frac 0.4291541234275000 0.1874999999999999 0.7582187611797500 Se
atom_frac 0.9291541234275000 0.1874999999999999 0.7582187611797500 Se
atom_frac 0.4291541234275000 0.4375000000000000 0.7582187611797500 Se
atom_frac 0.9291541234275000 0.4375000000000000 0.7582187611797500 Se
atom_frac 0.4291541234275000 0.6875000000000000 0.7582187611797500 Se
atom_frac 0.9291541234275000 0.6875000000000000 0.7582187611797500 Se
atom_frac 0.4291541234275000 0.9375000000000000 0.7582187611797500 Se
atom_frac 0.9291541234275000 0.9375000000000000 0.7582187611797500 Se
atom_frac 0.0708458765725000 0.0625000000000000 0.2417812388202502 Se
atom_frac 0.5708458765725001 0.0625000000000000 0.2417812388202502 Se
atom_frac 0.0708458765725000 0.3125000000000000 0.2417812388202502 Se
atom_frac 0.5708458765725001 0.3125000000000000 0.2417812388202502 Se
atom_frac 0.0708458765725000 0.5625000000000000 0.2417812388202502 Se
atom_frac 0.5708458765725001 0.5625000000000000 0.2417812388202502 Se
atom_frac 0.0708458765725000 0.8125000000000000 0.2417812388202502 Se
atom_frac 0.5708458765725001 0.8125000000000000 0.2417812388202502 Se
atom_frac 0.0708458765725000 0.0625000000000000 0.4917812388202502 Se
atom_frac 0.5708458765725001 0.0625000000000000 0.4917812388202502 Se
atom_frac 0.0708458765725000 0.3125000000000000 0.4917812388202502 Se
atom_frac 0.5708458765725001 0.3125000000000000 0.4917812388202502 Se
atom_frac 0.0708458765725000 0.5625000000000000 0.4917812388202502 Se
atom_frac 0.5708458765725001 0.5625000000000000 0.4917812388202502 Se
atom_frac 0.0708458765725000 0.8125000000000000 0.4917812388202502 Se
atom_frac 0.5708458765725001 0.8125000000000000 0.4917812388202502 Se
atom_frac 0.0708458765725000 0.0625000000000000 0.7417812388202502 Se
atom_frac 0.5708458765725001 0.0625000000000000 0.7417812388202502 Se
atom_frac 0.0708458765725000 0.3125000000000000 0.7417812388202502 Se
atom_frac 0.5708458765725001 0.3125000000000000 0.7417812388202502 Se
atom_frac 0.0708458765725000 0.5625000000000000 0.7417812388202502 Se
atom_frac 0.5708458765725001 0.5625000000000000 0.7417812388202502 Se
atom_frac 0.0708458765725000 0.8125000000000000 0.7417812388202502 Se
atom_frac 0.5708458765725001 0.8125000000000000 0.7417812388202502 Se
atom_frac 0.0708458765725000 0.0625000000000000 0.9917812388202502 Se
atom_frac 0.5708458765725001 0.0625000000000000 0.9917812388202502 Se
atom_frac 0.0708458765725000 0.3125000000000000 0.9917812388202502 Se
atom_frac 0.5708458765725001 0.3125000000000000 0.9917812388202502 Se
atom_frac 0.0708458765725000 0.5625000000000000 0.9917812388202502 Se
atom_frac 0.5708458765725001 0.5625000000000000 0.9917812388202502 Se
atom_frac 0.0708458765725000 0.8125000000000000 0.9917812388202502 Se
atom_frac 0.5708458765725001 0.8125000000000000 0.9917812388202502 Se
atom_frac 0.3208458765725000 0.0625000000000000 0.1332187611797498 Se
atom_frac 0.8208458765725001 0.0625000000000000 0.1332187611797498 Se
atom_frac 0.3208458765725000 0.3125000000000000 0.1332187611797498 Se
atom_frac 0.8208458765725001 0.3125000000000000 0.1332187611797498 Se
atom_frac 0.3208458765725000 0.5625000000000000 0.1332187611797498 Se
atom_frac 0.8208458765725001 0.5625000000000000 0.1332187611797498 Se
atom_frac 0.3208458765725000 0.8125000000000000 0.1332187611797498 Se
atom_frac 0.8208458765725001 0.8125000000000000 0.1332187611797498 Se
atom_frac 0.3208458765725000 0.0625000000000000 0.3832187611797498 Se
atom_frac 0.8208458765725001 0.0625000000000000 0.3832187611797498 Se
atom_frac 0.3208458765725000 0.3125000000000000 0.3832187611797498 Se
atom_frac 0.8208458765725001 0.3125000000000000 0.3832187611797498 Se
atom_frac 0.3208458765725000 0.5625000000000000 0.3832187611797498 Se
atom_frac 0.8208458765725001 0.5625000000000000 0.3832187611797498 Se
atom_frac 0.3208458765725000 0.8125000000000000 0.3832187611797498 Se
atom_frac 0.8208458765725001 0.8125000000000000 0.3832187611797498 Se
atom_frac 0.3208458765725000 0.0625000000000000 0.6332187611797498 Se
atom_frac 0.8208458765725001 0.0625000000000000 0.6332187611797498 Se
atom_frac 0.3208458765725000 0.3125000000000000 0.6332187611797498 Se
atom_frac 0.8208458765725001 0.3125000000000000 0.6332187611797498 Se
atom_frac 0.3208458765725000 0.5625000000000000 0.6332187611797498 Se
atom_frac 0.8208458765725001 0.5625000000000000 0.6332187611797498 Se
atom_frac 0.3208458765725000 0.8125000000000000 0.6332187611797498 Se
atom_frac 0.8208458765725001 0.8125000000000000 0.6332187611797498 Se
atom_frac 0.3208458765725000 0.0625000000000000 0.8832187611797498 Se
atom_frac 0.8208458765725001 0.0625000000000000 0.8832187611797498 Se
atom_frac 0.3208458765725000 0.3125000000000000 0.8832187611797498 Se
atom_frac 0.8208458765725001 0.3125000000000000 0.8832187611797498 Se
atom_frac 0.3208458765725000 0.5625000000000000 0.8832187611797498 Se
atom_frac 0.8208458765725001 0.5625000000000000 0.8832187611797498 Se
atom_frac 0.3208458765725000 0.8125000000000000 0.8832187611797498 Se
atom_frac 0.8208458765725001 0.8125000000000000 0.8832187611797498 Se
atom_frac 0.1791541234274999 0.1874999999999999 0.1167812388202502 Se
atom_frac 0.6791541234274999 0.1874999999999999 0.1167812388202502 Se
atom_frac 0.1791541234274999 0.4375000000000000 0.1167812388202502 Se
atom_frac 0.6791541234274999 0.4375000000000000 0.1167812388202502 Se
atom_frac 0.1791541234274999 0.6875000000000000 0.1167812388202502 Se
atom_frac 0.6791541234274999 0.6875000000000000 0.1167812388202502 Se
atom_frac 0.1791541234274999 0.9375000000000000 0.1167812388202502 Se
atom_frac 0.6791541234274999 0.9375000000000000 0.1167812388202502 Se
atom_frac 0.1791541234274999 0.1874999999999999 0.3667812388202502 Se
atom_frac 0.6791541234274999 0.1874999999999999 0.3667812388202502 Se
atom_frac 0.1791541234274999 0.4375000000000000 0.3667812388202502 Se
atom_frac 0.6791541234274999 0.4375000000000000 0.3667812388202502 Se
atom_frac 0.1791541234274999 0.6875000000000000 0.3667812388202502 Se
atom_frac 0.6791541234274999 0.6875000000000000 0.3667812388202502 Se
atom_frac 0.1791541234274999 0.9375000000000000 0.3667812388202502 Se
atom_frac 0.6791541234274999 0.9375000000000000 0.3667812388202502 Se
atom_frac 0.1791541234274999 0.1874999999999999 0.6167812388202502 Se
atom_frac 0.6791541234274999 0.1874999999999999 0.6167812388202502 Se
atom_frac 0.1791541234274999 0.4375000000000000 0.6167812388202502 Se
atom_frac 0.6791541234274999 0.4375000000000000 0.6167812388202502 Se
atom_frac 0.1791541234274999 0.6875000000000000 0.6167812388202502 Se
atom_frac 0.6791541234274999 0.6875000000000000 0.6167812388202502 Se
atom_frac 0.1791541234274999 0.9375000000000000 0.6167812388202502 Se
atom_frac 0.6791541234274999 0.9375000000000000 0.6167812388202502 Se
atom_frac 0.1791541234274999 0.1874999999999999 0.8667812388202502 Se
atom_frac 0.6791541234274999 0.1874999999999999 0.8667812388202502 Se
atom_frac 0.1791541234274999 0.4375000000000000 0.8667812388202502 Se
atom_frac 0.6791541234274999 0.4375000000000000 0.8667812388202502 Se
atom_frac 0.1791541234274999 0.6875000000000000 0.8667812388202502 Se
atom_frac 0.6791541234274999 0.6875000000000000 0.8667812388202502 Se
atom_frac 0.1791541234274999 0.9375000000000000 0.8667812388202502 Se
atom_frac 0.6791541234274999 0.9375000000000000 0.8667812388202502 Se
atom_frac 0.0599709486760000 0.1874999999999999 0.0994941133410002 Sn
atom_frac 0.5599709486760001 0.1874999999999999 0.0994941133410002 Sn
atom_frac 0.0599709486760000 0.4375000000000000 0.0994941133410002 Sn
atom_frac 0.5599709486760001 0.4375000000000000 0.0994941133410002 Sn
atom_frac 0.0599709486760000 0.6875000000000000 0.0994941133410002 Sn
atom_frac 0.5599709486760001 0.6875000000000000 0.0994941133410002 Sn
atom_frac 0.0599709486760000 0.9375000000000000 0.0994941133410002 Sn
atom_frac 0.5599709486760001 0.9375000000000000 0.0994941133410002 Sn
atom_frac 0.0599709486760000 0.1874999999999999 0.3494941133410002 Sn
atom_frac 0.5599709486760001 0.1874999999999999 0.3494941133410002 Sn
atom_frac 0.0599709486760000 0.4375000000000000 0.3494941133410002 Sn
atom_frac 0.5599709486760001 0.4375000000000000 0.3494941133410002 Sn
atom_frac 0.0599709486760000 0.6875000000000000 0.3494941133410002 Sn
atom_frac 0.5599709486760001 0.6875000000000000 0.3494941133410002 Sn
atom_frac 0.0599709486760000 0.9375000000000000 0.3494941133410002 Sn
atom_frac 0.5599709486760001 0.9375000000000000 0.3494941133410002 Sn
atom_frac 0.0599709486760000 0.1874999999999999 0.5994941133410002 Sn
atom_frac 0.5599709486760001 0.1874999999999999 0.5994941133410002 Sn
atom_frac 0.0599709486760000 0.4375000000000000 0.5994941133410002 Sn
atom_frac 0.5599709486760001 0.4375000000000000 0.5994941133410002 Sn
atom_frac 0.0599709486760000 0.6875000000000000 0.5994941133410002 Sn
atom_frac 0.5599709486760001 0.6875000000000000 0.5994941133410002 Sn
atom_frac 0.0599709486760000 0.9375000000000000 0.5994941133410002 Sn
atom_frac 0.5599709486760001 0.9375000000000000 0.5994941133410002 Sn
atom_frac 0.0599709486760000 0.1874999999999999 0.8494941133410002 Sn
atom_frac 0.5599709486760001 0.1874999999999999 0.8494941133410002 Sn
atom_frac 0.0599709486760000 0.4375000000000000 0.8494941133410002 Sn
atom_frac 0.5599709486760001 0.4375000000000000 0.8494941133410002 Sn
atom_frac 0.0599709486760000 0.6875000000000000 0.8494941133410002 Sn
atom_frac 0.5599709486760001 0.6875000000000000 0.8494941133410002 Sn
atom_frac 0.0599709486760000 0.9375000000000000 0.8494941133410002 Sn
atom_frac 0.5599709486760001 0.9375000000000000 0.8494941133410002 Sn
atom_frac 0.4400290513240009 0.0625000000000000 0.1505058866589998 Sn
atom_frac 0.9400290513240009 0.0625000000000000 0.1505058866589998 Sn
atom_frac 0.4400290513240009 0.3125000000000000 0.1505058866589998 Sn
atom_frac 0.9400290513240009 0.3125000000000000 0.1505058866589998 Sn
atom_frac 0.4400290513240009 0.5625000000000000 0.1505058866589998 Sn
atom_frac 0.9400290513240009 0.5625000000000000 0.1505058866589998 Sn
atom_frac 0.4400290513240009 0.8125000000000000 0.1505058866589998 Sn
atom_frac 0.9400290513240009 0.8125000000000000 0.1505058866589998 Sn
atom_frac 0.4400290513240009 0.0625000000000000 0.4005058866589998 Sn
atom_frac 0.9400290513240009 0.0625000000000000 0.4005058866589998 Sn
atom_frac 0.4400290513240009 0.3125000000000000 0.4005058866589998 Sn
atom_frac 0.9400290513240009 0.3125000000000000 0.4005058866589998 Sn
atom_frac 0.4400290513240009 0.5625000000000000 0.4005058866589998 Sn
atom_frac 0.9400290513240009 0.5625000000000000 0.4005058866589998 Sn
atom_frac 0.4400290513240009 0.8125000000000000 0.4005058866589998 Sn
atom_frac 0.9400290513240009 0.8125000000000000 0.4005058866589998 Sn
atom_frac 0.4400290513240009 0.0625000000000000 0.6505058866589998 Sn
atom_frac 0.9400290513240009 0.0625000000000000 0.6505058866589998 Sn
atom_frac 0.4400290513240009 0.3125000000000000 0.6505058866589998 Sn
atom_frac 0.9400290513240009 0.3125000000000000 0.6505058866589998 Sn
atom_frac 0.4400290513240009 0.5625000000000000 0.6505058866589998 Sn
atom_frac 0.9400290513240009 0.5625000000000000 0.6505058866589998 Sn
atom_frac 0.4400290513240009 0.8125000000000000 0.6505058866589998 Sn
atom_frac 0.9400290513240009 0.8125000000000000 0.6505058866589998 Sn
atom_frac 0.4400290513240009 0.0625000000000000 0.9005058866589998 Sn
atom_frac 0.9400290513240009 0.0625000000000000 0.9005058866589998 Sn
atom_frac 0.4400290513240009 0.3125000000000000 0.9005058866589998 Sn
atom_frac 0.9400290513240009 0.3125000000000000 0.9005058866589998 Sn
atom_frac 0.4400290513240009 0.5625000000000000 0.9005058866589998 Sn
atom_frac 0.9400290513240009 0.5625000000000000 0.9005058866589998 Sn
atom_frac 0.4400290513240009 0.8125000000000000 0.9005058866589998 Sn
atom_frac 0.9400290513240009 0.8125000000000000 0.9005058866589998 Sn
atom_frac 0.1900290513239999 0.0625000000000000 0.2244941133410003 Sn
atom_frac 0.6900290513240001 0.0625000000000000 0.2244941133410003 Sn
atom_frac 0.1900290513239999 0.3125000000000000 0.2244941133410003 Sn
atom_frac 0.6900290513240001 0.3125000000000000 0.2244941133410003 Sn
atom_frac 0.1900290513239999 0.5625000000000000 0.2244941133410003 Sn
atom_frac 0.6900290513240001 0.5625000000000000 0.2244941133410003 Sn
atom_frac 0.1900290513239999 0.8125000000000000 0.2244941133410003 Sn
atom_frac 0.6900290513240001 0.8125000000000000 0.2244941133410003 Sn
atom_frac 0.1900290513239999 0.0625000000000000 0.4744941133410002 Sn
atom_frac 0.6900290513240001 0.0625000000000000 0.4744941133410002 Sn
atom_frac 0.1900290513239999 0.3125000000000000 0.4744941133410002 Sn
atom_frac 0.6900290513240001 0.3125000000000000 0.4744941133410002 Sn
atom_frac 0.1900290513239999 0.5625000000000000 0.4744941133410002 Sn
atom_frac 0.6900290513240001 0.5625000000000000 0.4744941133410002 Sn
atom_frac 0.1900290513239999 0.8125000000000000 0.4744941133410002 Sn
atom_frac 0.6900290513240001 0.8125000000000000 0.4744941133410002 Sn
atom_frac 0.1900290513239999 0.0625000000000000 0.7244941133410002 Sn
atom_frac 0.6900290513240001 0.0625000000000000 0.7244941133410002 Sn
atom_frac 0.1900290513239999 0.3125000000000000 0.7244941133410002 Sn
atom_frac 0.6900290513240001 0.3125000000000000 0.7244941133410002 Sn
atom_frac 0.1900290513239999 0.5625000000000000 0.7244941133410002 Sn
atom_frac 0.6900290513240001 0.5625000000000000 0.7244941133410002 Sn
atom_frac 0.1900290513239999 0.8125000000000000 0.7244941133410002 Sn
atom_frac 0.6900290513240001 0.8125000000000000 0.7244941133410002 Sn
atom_frac 0.1900290513239999 0.0625000000000000 0.9744941133410002 Sn
atom_frac 0.6900290513240001 0.0625000000000000 0.9744941133410002 Sn
atom_frac 0.1900290513239999 0.3125000000000000 0.9744941133410002 Sn
atom_frac 0.6900290513240001 0.3125000000000000 0.9744941133410002 Sn
atom_frac 0.1900290513239999 0.5625000000000000 0.9744941133410002 Sn
atom_frac 0.6900290513240001 0.5625000000000000 0.9744941133410002 Sn
atom_frac 0.1900290513239999 0.8125000000000000 0.9744941133410002 Sn
atom_frac 0.6900290513240001 0.8125000000000000 0.9744941133410002 Sn
atom_frac 0.3099709486759999 0.1874999999999999 0.0255058866590000 Sn
atom_frac 0.8099709486759999 0.1874999999999999 0.0255058866590000 Sn
atom_frac 0.3099709486759999 0.4375000000000000 0.0255058866590000 Sn
atom_frac 0.8099709486759999 0.4375000000000000 0.0255058866590000 Sn
atom_frac 0.3099709486759999 0.6875000000000000 0.0255058866590000 Sn
atom_frac 0.8099709486759999 0.6875000000000000 0.0255058866590000 Sn
atom_frac 0.3099709486759999 0.9375000000000000 0.0255058866590000 Sn
atom_frac 0.8099709486759999 0.9375000000000000 0.0255058866590000 Sn
atom_frac 0.3099709486759999 0.1874999999999999 0.2755058866590000 Sn
atom_frac 0.8099709486759999 0.1874999999999999 0.2755058866590000 Sn
atom_frac 0.3099709486759999 0.4375000000000000 0.2755058866590000 Sn
atom_frac 0.8099709486759999 0.4375000000000000 0.2755058866590000 Sn
atom_frac 0.3099709486759999 0.6875000000000000 0.2755058866590000 Sn
atom_frac 0.8099709486759999 0.6875000000000000 0.2755058866590000 Sn
atom_frac 0.3099709486759999 0.9375000000000000 0.2755058866590000 Sn
atom_frac 0.8099709486759999 0.9375000000000000 0.2755058866590000 Sn
atom_frac 0.3099709486759999 0.1874999999999999 0.5255058866590000 Sn
atom_frac 0.8099709486759999 0.1874999999999999 0.5255058866590000 Sn
atom_frac 0.3099709486759999 0.4375000000000000 0.5255058866590000 Sn
atom_frac 0.8099709486759999 0.4375000000000000 0.5255058866590000 Sn
atom_frac 0.3099709486759999 0.6875000000000000 0.5255058866590000 Sn
atom_frac 0.8099709486759999 0.6875000000000000 0.5255058866590000 Sn
atom_frac 0.3099709486759999 0.9375000000000000 0.5255058866590000 Sn
atom_frac 0.8099709486759999 0.9375000000000000 0.5255058866590000 Sn
atom_frac 0.3099709486759999 0.1874999999999999 0.7755058866590000 Sn
atom_frac 0.8099709486759999 0.1874999999999999 0.7755058866590000 Sn
atom_frac 0.3099709486759999 0.4375000000000000 0.7755058866590000 Sn
atom_frac 0.8099709486759999 0.4375000000000000 0.7755058866590000 Sn
atom_frac 0.3099709486759999 0.6875000000000000 0.7755058866590000 Sn
atom_frac 0.8099709486759999 0.6875000000000000 0.7755058866590000 Sn
atom_frac 0.3099709486759999 0.9375000000000000 0.7755058866590000 Sn
atom_frac 0.8099709486759999 0.9375000000000000 0.7755058866590000 Sn
