#=======================================================
# FHI-aims file: geometry.in.primitive.supercell_864.0300K
# Created using the Atomic Simulation Environment (ASE)
# Fri Apr  7 17:36:08 2023

# Additional information:
#  created from MB distrubtion
#  T = 300.0 K
#  quantum:             False
#  deterministic:       False
#  plus_minus:          False
#  gauge_eigenvectors:  False
#  Random seed:         1362649256
#  Sample number:       1
#=======================================================
lattice_vector 34.9035775646610560 0.0000000000000000 0.0000000000000000 
lattice_vector 0.0000000000000000 25.1740171528921195 0.0000000000000000 
lattice_vector 0.0000000000000000 0.0000000000000000 26.4253291498020602 
atom 9.9860094894972491 3.1467521441115149 0.1447889795856720 Se
    velocity -2.0840557366060493 2.2551089908089468 2.0496284650341345
atom 21.6205353443842654 3.1467521441115149 0.1447889795856720 Se
    velocity -1.0591449232820265 0.2790510441958388 -2.5033338507241476
atom 33.2550611992712817 3.1467521441115149 0.1447889795856720 Se
    velocity -1.6319020007831369 0.4046351529586836 1.0618084399815311
atom 9.9860094894972491 7.3424216695935325 0.1447889795856720 Se
    velocity -1.2460862844510536 -1.6830309777998285 0.0631959135251252
atom 21.6205353443842654 7.3424216695935325 0.1447889795856720 Se
    velocity -1.9355797973464373 -1.4890752273039869 0.4243438853393436
atom 33.2550611992712817 7.3424216695935325 0.1447889795856720 Se
    velocity 2.2048508936626852 0.0108628925261946 0.9995549501945752
atom 9.9860094894972491 11.5380911950755536 0.1447889795856720 Se
    velocity -0.0968485506218467 -1.8800833342442835 -3.2826517100712578
atom 21.6205353443842654 11.5380911950755536 0.1447889795856720 Se
    velocity -3.2365768087765256 3.8544090586369437 0.0174468753979233
atom 33.2550611992712817 11.5380911950755536 0.1447889795856720 Se
    velocity -0.4969593877414415 -0.0787691720704299 -1.6736838647016330
atom 9.9860094894972491 15.7337607205575747 0.1447889795856720 Se
    velocity 0.8914761129763185 -2.7283936683777856 0.4652055998752022
atom 21.6205353443842654 15.7337607205575747 0.1447889795856720 Se
    velocity 2.1824408456601785 0.7418313642126559 -0.3395356971274068
atom 33.2550611992712817 15.7337607205575747 0.1447889795856720 Se
    velocity -2.8247520169045899 0.0317164919795698 -2.1322865836420801
atom 9.9860094894972491 19.9294302460395940 0.1447889795856720 Se
    velocity 2.1463793980968453 1.3530614361546931 -0.0034438678646206
atom 21.6205353443842654 19.9294302460395940 0.1447889795856720 Se
    velocity 0.4343568810639636 0.4765587433928550 1.8802723341619629
atom 33.2550611992712817 19.9294302460395940 0.1447889795856720 Se
    velocity -0.1009444075232386 -0.2387349998024677 2.1485809538017269
atom 9.9860094894972491 24.1250997715216116 0.1447889795856720 Se
    velocity -0.6024269779349458 0.2643857610687285 1.4409500159023019
atom 21.6205353443842654 24.1250997715216116 0.1447889795856720 Se
    velocity -0.8193033167930812 -0.6461184246216651 -0.5817779914631666
atom 33.2550611992712817 24.1250997715216116 0.1447889795856720 Se
    velocity 2.3799259390920242 0.4146956153779243 2.4573985143340944
atom 9.9860094894972491 3.1467521441115149 4.5490105045526832 Se
    velocity -0.0350824404560117 3.7830327112480009 0.8460433311281031
atom 21.6205353443842654 3.1467521441115149 4.5490105045526832 Se
    velocity 0.3856034054705083 1.7097547668380699 -0.0229690566181154
atom 33.2550611992712817 3.1467521441115149 4.5490105045526832 Se
    velocity 3.4709358644741974 -1.1550737544902301 -1.1418930084506518
atom 9.9860094894972491 7.3424216695935325 4.5490105045526832 Se
    velocity 0.7619778573574109 1.2627842640493534 -0.7729650231044439
atom 21.6205353443842654 7.3424216695935325 4.5490105045526832 Se
    velocity -3.0045673916522389 0.3976055129443721 0.3614852532628497
atom 33.2550611992712817 7.3424216695935325 4.5490105045526832 Se
    velocity 0.2843122202212716 -1.7139387018160683 -0.8295413193283572
atom 9.9860094894972491 11.5380911950755536 4.5490105045526832 Se
    velocity 2.8506728796768890 0.0011223356720120 -1.2393821231175601
atom 21.6205353443842654 11.5380911950755536 4.5490105045526832 Se
    velocity 1.9529340743408898 -1.5037700784391659 1.3411158204701179
atom 33.2550611992712817 11.5380911950755536 4.5490105045526832 Se
    velocity 1.4851404916583524 -1.3141453782018100 0.5341852665680282
atom 9.9860094894972491 15.7337607205575747 4.5490105045526832 Se
    velocity -1.0464883693758213 2.5947338966393443 -1.4216067289003709
atom 21.6205353443842654 15.7337607205575747 4.5490105045526832 Se
    velocity 0.9069162298251373 1.0178652219769588 1.9152687243989459
atom 33.2550611992712817 15.7337607205575747 4.5490105045526832 Se
    velocity 1.4143647475294523 -1.6846041747841807 -0.3713890544290454
atom 9.9860094894972491 19.9294302460395940 4.5490105045526832 Se
    velocity 0.1033026363273745 2.4492483852485849 -0.7216082706557809
atom 21.6205353443842654 19.9294302460395940 4.5490105045526832 Se
    velocity -1.2499199906949323 -2.9242277116547326 -0.9603539606548092
atom 33.2550611992712817 19.9294302460395940 4.5490105045526832 Se
    velocity -1.0094161749360333 -1.9547046217631459 0.0391289199928148
atom 9.9860094894972491 24.1250997715216116 4.5490105045526832 Se
    velocity -0.2141392620364553 -1.7337882503591471 -0.6355228445871351
atom 21.6205353443842654 24.1250997715216116 4.5490105045526832 Se
    velocity -1.6002472635209570 0.7748446035111678 -2.0775980312359987
atom 33.2550611992712817 24.1250997715216116 4.5490105045526832 Se
    velocity -0.9388596201604218 -0.2926304255241034 -1.5703347369934477
atom 9.9860094894972491 3.1467521441115149 8.9532320295196932 Se
    velocity 0.9843340339876895 -0.0473580404921894 1.5792987038856376
atom 21.6205353443842654 3.1467521441115149 8.9532320295196932 Se
    velocity -0.9938341939535301 0.8040754338242804 -0.4009242485255889
atom 33.2550611992712817 3.1467521441115149 8.9532320295196932 Se
    velocity -0.4117843218794480 1.2752282509871584 3.5371667478129112
atom 9.9860094894972491 7.3424216695935325 8.9532320295196932 Se
    velocity -1.3985697183988235 -1.3710514725031788 -4.3891701063149373
atom 21.6205353443842654 7.3424216695935325 8.9532320295196932 Se
    velocity -2.3703862696663620 -2.9267858982504396 -0.8944385078378039
atom 33.2550611992712817 7.3424216695935325 8.9532320295196932 Se
    velocity 0.9945886414111083 -0.7825606706735917 -2.8322540225929811
atom 9.9860094894972491 11.5380911950755536 8.9532320295196932 Se
    velocity 4.3863146757545373 4.0441417762291509 1.6512115557497862
atom 21.6205353443842654 11.5380911950755536 8.9532320295196932 Se
    velocity 2.3003917935797120 -0.0543068325481838 1.7830144022128469
atom 33.2550611992712817 11.5380911950755536 8.9532320295196932 Se
    velocity -1.7897599025665603 1.6962406626188220 -1.0002430030576133
atom 9.9860094894972491 15.7337607205575747 8.9532320295196932 Se
    velocity -1.3359281412754500 0.5703421182639252 -0.2386573677707383
atom 21.6205353443842654 15.7337607205575747 8.9532320295196932 Se
    velocity 0.7775841285629933 0.1212078047511453 1.6436284425203096
atom 33.2550611992712817 15.7337607205575747 8.9532320295196932 Se
    velocity -3.6067795824786377 -1.4511251905122391 2.2653709205226691
atom 9.9860094894972491 19.9294302460395940 8.9532320295196932 Se
    velocity 2.8131739214290561 2.9744990740494459 -0.7043385002113831
atom 21.6205353443842654 19.9294302460395940 8.9532320295196932 Se
    velocity 1.8382071802163105 -1.4390294358790574 0.1886462377729347
atom 33.2550611992712817 19.9294302460395940 8.9532320295196932 Se
    velocity 0.2786789964816091 0.6518171064313197 -1.9212426522735357
atom 9.9860094894972491 24.1250997715216116 8.9532320295196932 Se
    velocity 1.4634778833542055 0.7041956597518084 -0.1548818043148038
atom 21.6205353443842654 24.1250997715216116 8.9532320295196932 Se
    velocity 2.1851287726516238 -1.8402157491462374 -0.4052958598229187
atom 33.2550611992712817 24.1250997715216116 8.9532320295196932 Se
    velocity 2.8950567887005176 2.2106858667845968 0.9988016306377975
atom 9.9860094894972491 3.1467521441115149 13.3574535544866997 Se
    velocity -1.1464408034635432 2.5994238016485176 -0.0126097665130428
atom 21.6205353443842654 3.1467521441115149 13.3574535544866997 Se
    velocity -0.2245574093619634 0.9294648811645839 -0.1382508598817520
atom 33.2550611992712817 3.1467521441115149 13.3574535544866997 Se
    velocity -1.7811706213396410 1.0441620610352809 2.3822401097148727
atom 9.9860094894972491 7.3424216695935325 13.3574535544866997 Se
    velocity 0.0970137325574407 -5.4798969705370446 1.1676157662603859
atom 21.6205353443842654 7.3424216695935325 13.3574535544866997 Se
    velocity -2.8779830528768096 -0.4808012241729598 1.1227050364290410
atom 33.2550611992712817 7.3424216695935325 13.3574535544866997 Se
    velocity -3.1464907301357430 1.3587321851143344 -0.9537418829547288
atom 9.9860094894972491 11.5380911950755536 13.3574535544866997 Se
    velocity 0.5035598014814137 1.6405675547532474 -2.3193781490431062
atom 21.6205353443842654 11.5380911950755536 13.3574535544866997 Se
    velocity 1.8587335733851531 -0.3682596052777524 1.1757142742639690
atom 33.2550611992712817 11.5380911950755536 13.3574535544866997 Se
    velocity 3.2740274862973067 -0.0215662162202779 -0.8130565766362691
atom 9.9860094894972491 15.7337607205575747 13.3574535544866997 Se
    velocity 0.1942091679742425 0.8121120938717186 -3.2716098534636568
atom 21.6205353443842654 15.7337607205575747 13.3574535544866997 Se
    velocity 0.1297134701728284 -1.1735506645463072 0.7975028332532079
atom 33.2550611992712817 15.7337607205575747 13.3574535544866997 Se
    velocity 0.9045814678716095 0.2666634090711382 2.1610882404872243
atom 9.9860094894972491 19.9294302460395940 13.3574535544866997 Se
    velocity -0.6784063955622813 0.3818118459670321 -1.4150585954102179
atom 21.6205353443842654 19.9294302460395940 13.3574535544866997 Se
    velocity -2.8702262851641041 -0.5207878283436030 -0.9445692698070780
atom 33.2550611992712817 19.9294302460395940 13.3574535544866997 Se
    velocity -0.4119571912997352 -3.8847248574789250 1.1336923373555274
atom 9.9860094894972491 24.1250997715216116 13.3574535544866997 Se
    velocity 0.1044056794299306 -2.5515909340311080 1.1322336830994146
atom 21.6205353443842654 24.1250997715216116 13.3574535544866997 Se
    velocity -2.1513571324352303 -2.1059492762898491 -2.7992704911671291
atom 33.2550611992712817 24.1250997715216116 13.3574535544866997 Se
    velocity -0.7490142033587175 -0.8740200362448238 -0.9789220582080210
atom 9.9860094894972491 3.1467521441115149 17.7616750794537168 Se
    velocity -0.2837779783696363 -0.4969833769442637 0.3430051272162634
atom 21.6205353443842654 3.1467521441115149 17.7616750794537168 Se
    velocity 3.1336373485672189 0.3636902520179190 5.7783078186250956
atom 33.2550611992712817 3.1467521441115149 17.7616750794537168 Se
    velocity 1.1843965472786415 -2.3905376190620089 -3.5775903722798481
atom 9.9860094894972491 7.3424216695935325 17.7616750794537168 Se
    velocity -1.0479054200835953 -0.7675511846092498 -0.8465328056417605
atom 21.6205353443842654 7.3424216695935325 17.7616750794537168 Se
    velocity -0.4625164243926407 -3.0562260543841577 0.0067044878787141
atom 33.2550611992712817 7.3424216695935325 17.7616750794537168 Se
    velocity -0.1856851603969910 -0.0858911166481591 -2.3204273583410173
atom 9.9860094894972491 11.5380911950755536 17.7616750794537168 Se
    velocity -1.7581275629156743 1.7424224248079232 2.4629112260154957
atom 21.6205353443842654 11.5380911950755536 17.7616750794537168 Se
    velocity 1.3688708903822129 0.3148477546075216 1.4930571820139524
atom 33.2550611992712817 11.5380911950755536 17.7616750794537168 Se
    velocity 2.0401628644241785 1.2917934898036472 0.5504349488702226
atom 9.9860094894972491 15.7337607205575747 17.7616750794537168 Se
    velocity -1.2048452815485444 1.9343700566596524 0.1661914377907117
atom 21.6205353443842654 15.7337607205575747 17.7616750794537168 Se
    velocity -3.3956823247169945 -0.4268391146130156 -0.7086226351960049
atom 33.2550611992712817 15.7337607205575747 17.7616750794537168 Se
    velocity -0.4125489937980619 -1.4205741935701535 -1.2249260534973747
atom 9.9860094894972491 19.9294302460395940 17.7616750794537168 Se
    velocity -1.9402836646916723 0.2591718097146274 0.8600878304816425
atom 21.6205353443842654 19.9294302460395940 17.7616750794537168 Se
    velocity 0.0841751190856701 -0.4479871690442246 -0.3766937540201203
atom 33.2550611992712817 19.9294302460395940 17.7616750794537168 Se
    velocity 1.5669278038951839 -1.8142186719684816 1.2741437717348325
atom 9.9860094894972491 24.1250997715216116 17.7616750794537168 Se
    velocity 0.7302732502802877 3.3927659493295117 2.7540914051788743
atom 21.6205353443842654 24.1250997715216116 17.7616750794537168 Se
    velocity -0.1212080430153827 -2.0285362655863923 0.8070851971083358
atom 33.2550611992712817 24.1250997715216116 17.7616750794537168 Se
    velocity 0.0295122183455941 1.6174678891825498 1.5855590246539086
atom 9.9860094894972491 3.1467521441115149 22.1658966044207197 Se
    velocity -0.1661123986992512 0.9623448245191719 -2.6583602021278510
atom 21.6205353443842654 3.1467521441115149 22.1658966044207197 Se
    velocity 3.0772620092036753 -0.9853115980666844 1.3763609917585196
atom 33.2550611992712817 3.1467521441115149 22.1658966044207197 Se
    velocity -2.5336481651132439 2.1258887775281763 -0.5131780469970313
atom 9.9860094894972491 7.3424216695935325 22.1658966044207197 Se
    velocity 1.2203959413867880 -1.2221252794271804 -1.1806579428712669
atom 21.6205353443842654 7.3424216695935325 22.1658966044207197 Se
    velocity 0.4759060639521631 1.6622037763133355 -1.6552233997810530
atom 33.2550611992712817 7.3424216695935325 22.1658966044207197 Se
    velocity -0.3948270198691166 -0.6102647885957970 -1.1319596488902242
atom 9.9860094894972491 11.5380911950755536 22.1658966044207197 Se
    velocity -1.7030071737595021 -1.4328934467213279 -3.1831501894299206
atom 21.6205353443842654 11.5380911950755536 22.1658966044207197 Se
    velocity -0.0767315714960097 -3.7559915730716313 1.1801085920985015
atom 33.2550611992712817 11.5380911950755536 22.1658966044207197 Se
    velocity 0.8439257871532115 1.1110171623321441 2.4982103507508864
atom 9.9860094894972491 15.7337607205575747 22.1658966044207197 Se
    velocity -1.1087956006610575 1.2291943085968589 2.1212699529499557
atom 21.6205353443842654 15.7337607205575747 22.1658966044207197 Se
    velocity -0.6340451352794501 -0.4593679750052841 -2.7019987881475394
atom 33.2550611992712817 15.7337607205575747 22.1658966044207197 Se
    velocity -3.3618738104438410 0.8789681639658035 -0.8472032472955157
atom 9.9860094894972491 19.9294302460395940 22.1658966044207197 Se
    velocity -2.0630493519870527 -1.9487902715401746 -1.4391922156286749
atom 21.6205353443842654 19.9294302460395940 22.1658966044207197 Se
    velocity 0.5748653287118189 -0.1276923509603137 -3.2002913180769386
atom 33.2550611992712817 19.9294302460395940 22.1658966044207197 Se
    velocity 0.5186660261958078 0.1196985484173881 -3.2953214134716426
atom 9.9860094894972491 24.1250997715216116 22.1658966044207197 Se
    velocity -0.3003679363624047 -1.8810020454623515 -1.6372322145157987
atom 21.6205353443842654 24.1250997715216116 22.1658966044207197 Se
    velocity -1.3015571682128582 -3.3866282087784079 0.8365655477221917
atom 33.2550611992712817 24.1250997715216116 22.1658966044207197 Se
    velocity 0.9674411759235907 3.0445090940960777 0.1302772291666216
atom 1.6485163653897725 1.0489173813705057 4.2594325453813422 Se
    velocity -1.0609798333732268 -0.0202221874928774 4.1413652011732500
atom 13.2830422202767888 1.0489173813705057 4.2594325453813422 Se
    velocity -1.6024640469697626 -0.5168982624243543 0.5422946250339122
atom 24.9175680751638104 1.0489173813705057 4.2594325453813422 Se
    velocity 1.0037654241333791 -0.4331073182857637 0.6877548569419933
atom 1.6485163653897725 5.2445869068525237 4.2594325453813422 Se
    velocity 0.2975068015446354 -1.8660685704557709 1.1798177713819400
atom 13.2830422202767888 5.2445869068525237 4.2594325453813422 Se
    velocity 3.2944739148006206 2.8591880985929872 2.0217412278486409
atom 24.9175680751638104 5.2445869068525237 4.2594325453813422 Se
    velocity -2.3618424171036962 1.3657240819912364 -2.9470243294885776
atom 1.6485163653897725 9.4402564323345448 4.2594325453813422 Se
    velocity 2.0909090977533049 0.2338885335594428 -0.6925956242684507
atom 13.2830422202767888 9.4402564323345448 4.2594325453813422 Se
    velocity 0.7323714642586093 -3.9423116858988450 -0.4277261327011663
atom 24.9175680751638104 9.4402564323345448 4.2594325453813422 Se
    velocity -0.9653294576020546 -2.1388623038146939 2.0726666389828172
atom 1.6485163653897725 13.6359259578165641 4.2594325453813422 Se
    velocity -0.2195659731817957 -2.7605283581090072 -4.5626095436173921
atom 13.2830422202767888 13.6359259578165641 4.2594325453813422 Se
    velocity -0.4346204359525089 1.6651845226853448 3.3098701957072758
atom 24.9175680751638104 13.6359259578165641 4.2594325453813422 Se
    velocity 2.8627877387624183 1.7266392447110404 0.7164652294144451
atom 1.6485163653897725 17.8315954832985817 4.2594325453813422 Se
    velocity -0.2314267363743689 1.7683606706775743 -1.7043927132302443
atom 13.2830422202767888 17.8315954832985817 4.2594325453813422 Se
    velocity -1.4822848025066107 0.7575652531225283 1.1233911299151647
atom 24.9175680751638104 17.8315954832985817 4.2594325453813422 Se
    velocity 2.2512189957445976 -0.0120758744739292 0.7268802350173903
atom 1.6485163653897725 22.0272650087806028 4.2594325453813422 Se
    velocity 3.9702638017153560 0.6417400990743477 -0.1275855566469716
atom 13.2830422202767888 22.0272650087806028 4.2594325453813422 Se
    velocity 1.9083612458144550 -1.3390455471192566 -1.0285828363334304
atom 24.9175680751638104 22.0272650087806028 4.2594325453813422 Se
    velocity 1.1571994751122030 1.1916049329259539 0.3310809666706366
atom 1.6485163653897725 1.0489173813705057 8.6636540703483487 Se
    velocity -1.6483374378415465 -1.1485120312754600 0.9223542168285402
atom 13.2830422202767888 1.0489173813705057 8.6636540703483487 Se
    velocity -1.8627368678559433 1.2694913115981650 -0.0238983849526927
atom 24.9175680751638104 1.0489173813705057 8.6636540703483487 Se
    velocity -1.3189949000430778 0.4038229035177305 -0.4489441295038764
atom 1.6485163653897725 5.2445869068525237 8.6636540703483487 Se
    velocity -1.0805201915108757 -0.5196981941816151 3.4687558926546753
atom 13.2830422202767888 5.2445869068525237 8.6636540703483487 Se
    velocity 3.8752917701028000 -0.1316472815824458 1.8846626705609224
atom 24.9175680751638104 5.2445869068525237 8.6636540703483487 Se
    velocity 0.9477891180285981 0.7826381756245222 2.9977255714587683
atom 1.6485163653897725 9.4402564323345448 8.6636540703483487 Se
    velocity -0.9939357676896968 -2.0942633069816847 -1.0706613927412514
atom 13.2830422202767888 9.4402564323345448 8.6636540703483487 Se
    velocity -1.0257368076799478 2.6575011923071670 0.6669250016062701
atom 24.9175680751638104 9.4402564323345448 8.6636540703483487 Se
    velocity 0.6322108784983820 -0.3813307241723318 1.7013644607147314
atom 1.6485163653897725 13.6359259578165641 8.6636540703483487 Se
    velocity 2.2119777958141178 1.9528187718027219 2.1376663086841745
atom 13.2830422202767888 13.6359259578165641 8.6636540703483487 Se
    velocity -1.5366133712766730 0.3874772033674522 -2.3037440751362590
atom 24.9175680751638104 13.6359259578165641 8.6636540703483487 Se
    velocity 1.5158595676400293 -2.0424144950409175 -0.2435311376863380
atom 1.6485163653897725 17.8315954832985817 8.6636540703483487 Se
    velocity -0.8044848492523089 -0.1296357383942159 1.1232254339495527
atom 13.2830422202767888 17.8315954832985817 8.6636540703483487 Se
    velocity 1.6514764754473699 0.4987709881260771 3.3030760744961443
atom 24.9175680751638104 17.8315954832985817 8.6636540703483487 Se
    velocity -6.1060621026729605 0.8033959050542385 2.7862460502719424
atom 1.6485163653897725 22.0272650087806028 8.6636540703483487 Se
    velocity -0.4027644361325286 1.3188519142391373 0.9244740067269515
atom 13.2830422202767888 22.0272650087806028 8.6636540703483487 Se
    velocity 1.6871874377645235 0.7727196109879330 -0.7156936874421862
atom 24.9175680751638104 22.0272650087806028 8.6636540703483487 Se
    velocity -0.0394206274935222 -1.7659114156453306 -0.7591502402205865
atom 1.6485163653897725 1.0489173813705057 13.0678755953153622 Se
    velocity -0.4112718022410702 -0.9199642455981658 -1.1841492299974963
atom 13.2830422202767888 1.0489173813705057 13.0678755953153622 Se
    velocity 1.4086368946624575 0.8687419411658388 -1.6608943274470769
atom 24.9175680751638104 1.0489173813705057 13.0678755953153622 Se
    velocity -1.1824106160345302 -0.4181274081333351 -1.4289302561671420
atom 1.6485163653897725 5.2445869068525237 13.0678755953153622 Se
    velocity -2.1698495665044342 2.0024660463953667 -0.9993476182557203
atom 13.2830422202767888 5.2445869068525237 13.0678755953153622 Se
    velocity -2.6302431688999643 0.3603662419358447 -0.6231966667345509
atom 24.9175680751638104 5.2445869068525237 13.0678755953153622 Se
    velocity 1.4926540992930284 -1.1342760414040172 -0.3314722666174237
atom 1.6485163653897725 9.4402564323345448 13.0678755953153622 Se
    velocity -2.0899689441863960 -0.5213843292825446 0.2706670504009629
atom 13.2830422202767888 9.4402564323345448 13.0678755953153622 Se
    velocity 1.9646511130643447 -0.2630339138979413 -3.2444926525518545
atom 24.9175680751638104 9.4402564323345448 13.0678755953153622 Se
    velocity 0.1219273706305856 -0.3651251415732006 -1.0336823906875998
atom 1.6485163653897725 13.6359259578165641 13.0678755953153622 Se
    velocity 0.8102295799139240 -2.0925984515135290 -4.4720542662347258
atom 13.2830422202767888 13.6359259578165641 13.0678755953153622 Se
    velocity 1.4796903993461210 1.0632009067832151 2.3484495840541406
atom 24.9175680751638104 13.6359259578165641 13.0678755953153622 Se
    velocity 0.4008419319963881 0.5886924596848645 -0.3985338734568106
atom 1.6485163653897725 17.8315954832985817 13.0678755953153622 Se
    velocity -1.9971831126355974 -2.4968934761687747 -0.5640596095326407
atom 13.2830422202767888 17.8315954832985817 13.0678755953153622 Se
    velocity -0.6700031301024754 -1.7023192211028380 1.5711242588710173
atom 24.9175680751638104 17.8315954832985817 13.0678755953153622 Se
    velocity -0.7181258619335282 -2.0129473062800156 0.4317487284823371
atom 1.6485163653897725 22.0272650087806028 13.0678755953153622 Se
    velocity 1.7323373396069761 -0.5202328666463246 1.9017984974155615
atom 13.2830422202767888 22.0272650087806028 13.0678755953153622 Se
    velocity -0.5047986725887391 2.7451585497007152 0.2426355751587640
atom 24.9175680751638104 22.0272650087806028 13.0678755953153622 Se
    velocity 3.7815481029849440 -1.1700778841923594 1.2095295924688494
atom 1.6485163653897725 1.0489173813705057 17.4720971202823705 Se
    velocity 0.9098589856871245 2.7153712639650949 -1.2115808587502577
atom 13.2830422202767888 1.0489173813705057 17.4720971202823705 Se
    velocity 1.8946479711262814 -2.0426438715389810 0.1717737669014849
atom 24.9175680751638104 1.0489173813705057 17.4720971202823705 Se
    velocity -1.2123048898585520 -1.5137026281268611 2.6229187716071789
atom 1.6485163653897725 5.2445869068525237 17.4720971202823705 Se
    velocity -2.1467312916392447 -0.1454536658948596 0.4416761054876768
atom 13.2830422202767888 5.2445869068525237 17.4720971202823705 Se
    velocity -0.1704389482823874 -0.1188971076430328 -1.7409636747599542
atom 24.9175680751638104 5.2445869068525237 17.4720971202823705 Se
    velocity -0.4640406930837197 -0.1284905711087884 -3.7005716939803568
atom 1.6485163653897725 9.4402564323345448 17.4720971202823705 Se
    velocity -1.4604997848504704 -0.0544912157580946 0.9788897500539612
atom 13.2830422202767888 9.4402564323345448 17.4720971202823705 Se
    velocity -1.3952007990841890 0.7185739917128559 1.5349449199117522
atom 24.9175680751638104 9.4402564323345448 17.4720971202823705 Se
    velocity 0.6293981931299851 -0.6181701906866424 2.6604539369767406
atom 1.6485163653897725 13.6359259578165641 17.4720971202823705 Se
    velocity 2.0752440666359444 -0.2942784234995424 -0.1681857877919667
atom 13.2830422202767888 13.6359259578165641 17.4720971202823705 Se
    velocity -0.3597731582903985 -1.0440447409907949 -1.4554508342089145
atom 24.9175680751638104 13.6359259578165641 17.4720971202823705 Se
    velocity 2.6083325132224613 1.2354412925750107 0.1959922492501658
atom 1.6485163653897725 17.8315954832985817 17.4720971202823705 Se
    velocity -2.7561918093576607 -0.7715055999309046 -2.7834184360424987
atom 13.2830422202767888 17.8315954832985817 17.4720971202823705 Se
    velocity -1.0374365879794107 -0.9936233726909497 -1.9826127525539812
atom 24.9175680751638104 17.8315954832985817 17.4720971202823705 Se
    velocity -0.1629276105701555 0.1404539759512187 -1.7354240021369951
atom 1.6485163653897725 22.0272650087806028 17.4720971202823705 Se
    velocity 2.2740344842672910 -1.0988733108640720 0.6305904861662615
atom 13.2830422202767888 22.0272650087806028 17.4720971202823705 Se
    velocity -0.9715401128176250 2.8713352792276798 -1.7552373042032272
atom 24.9175680751638104 22.0272650087806028 17.4720971202823705 Se
    velocity 0.3861330646531718 1.0677203768110464 2.7409854124017761
atom 1.6485163653897725 1.0489173813705057 21.8763186452493805 Se
    velocity 1.6827934864393135 -0.8336823591160938 -1.9654257493020735
atom 13.2830422202767888 1.0489173813705057 21.8763186452493805 Se
    velocity -1.1423901796659472 -0.4998357562171212 1.3068267652313856
atom 24.9175680751638104 1.0489173813705057 21.8763186452493805 Se
    velocity 1.5107207816360184 0.3948824162506199 -1.3810204675619513
atom 1.6485163653897725 5.2445869068525237 21.8763186452493805 Se
    velocity -1.3507034829635327 -0.1781391459307148 0.0108665870477878
atom 13.2830422202767888 5.2445869068525237 21.8763186452493805 Se
    velocity 2.9780340615596050 -1.9019187545629457 1.3088987199792945
atom 24.9175680751638104 5.2445869068525237 21.8763186452493805 Se
    velocity -0.1132787611918058 -0.3499370748022128 -2.2571822627457450
atom 1.6485163653897725 9.4402564323345448 21.8763186452493805 Se
    velocity 0.0366789140396544 -0.1612024083509633 -0.6379166849320074
atom 13.2830422202767888 9.4402564323345448 21.8763186452493805 Se
    velocity -0.8475041877494820 0.9959560189280321 0.8889424495050363
atom 24.9175680751638104 9.4402564323345448 21.8763186452493805 Se
    velocity 4.1729132589643125 3.8409761396529625 -3.4310182612702080
atom 1.6485163653897725 13.6359259578165641 21.8763186452493805 Se
    velocity -0.0305860963587577 4.6500256341173358 -0.1354823003612821
atom 13.2830422202767888 13.6359259578165641 21.8763186452493805 Se
    velocity -0.9976351279817738 -0.7194430001992975 0.0731044408715780
atom 24.9175680751638104 13.6359259578165641 21.8763186452493805 Se
    velocity 1.3967725327521798 0.3587686716400303 0.7816563248953603
atom 1.6485163653897725 17.8315954832985817 21.8763186452493805 Se
    velocity 2.7871647601014811 -0.8314836960726573 -1.3421153835961055
atom 13.2830422202767888 17.8315954832985817 21.8763186452493805 Se
    velocity 0.5452828074347977 1.9053111030713759 -0.8708185405949230
atom 24.9175680751638104 17.8315954832985817 21.8763186452493805 Se
    velocity 0.0807831033355667 2.1390360838785143 1.5686983884288517
atom 1.6485163653897725 22.0272650087806028 21.8763186452493805 Se
    velocity 0.0849376179045217 -1.8915272442036797 -2.6957091433239211
atom 13.2830422202767888 22.0272650087806028 21.8763186452493805 Se
    velocity 0.7521312179509726 -0.1533187297138751 0.7200986088615116
atom 24.9175680751638104 22.0272650087806028 21.8763186452493805 Se
    velocity -1.5972987969060708 1.7100642066189091 -0.6954105820972882
atom 1.6485163653897725 1.0489173813705057 26.2805401702163941 Se
    velocity 1.1306546137555649 -2.2103134483280611 -3.0492728237003095
atom 13.2830422202767888 1.0489173813705057 26.2805401702163941 Se
    velocity 2.6228089694919881 -1.3167480221624703 2.6768173316754749
atom 24.9175680751638104 1.0489173813705057 26.2805401702163941 Se
    velocity 2.1800513438859110 1.4117028819439421 0.3706669298462783
atom 1.6485163653897725 5.2445869068525237 26.2805401702163941 Se
    velocity 0.8433853587428041 1.8921868653547707 -1.3118422410496566
atom 13.2830422202767888 5.2445869068525237 26.2805401702163941 Se
    velocity 2.0050785677453824 1.9545977271908890 2.0457875415431825
atom 24.9175680751638104 5.2445869068525237 26.2805401702163941 Se
    velocity 1.1191172748915841 0.4942077957480292 -0.0270370294695239
atom 1.6485163653897725 9.4402564323345448 26.2805401702163941 Se
    velocity 1.7674192589436557 -1.6364602020876897 -0.6032631055259785
atom 13.2830422202767888 9.4402564323345448 26.2805401702163941 Se
    velocity -2.0725158280492537 -1.0338207980733152 -1.8487844626115717
atom 24.9175680751638104 9.4402564323345448 26.2805401702163941 Se
    velocity -0.8960977927730009 -1.3125051506215784 -0.2877973865206729
atom 1.6485163653897725 13.6359259578165641 26.2805401702163941 Se
    velocity 1.5944825752187646 1.2986132524009015 -0.5613646741673801
atom 13.2830422202767888 13.6359259578165641 26.2805401702163941 Se
    velocity 0.5709005860538394 -0.6179699754757588 -1.3843251170385251
atom 24.9175680751638104 13.6359259578165641 26.2805401702163941 Se
    velocity 0.1295576783334514 -1.0660257189672193 0.2779474605293853
atom 1.6485163653897725 17.8315954832985817 26.2805401702163941 Se
    velocity 1.5705915388539551 0.1809798100680061 0.4832989110470420
atom 13.2830422202767888 17.8315954832985817 26.2805401702163941 Se