#=======================================================
# FHI-aims file: geometry.in.primitive.supercell_4000.0300K
# Created using the Atomic Simulation Environment (ASE)
# Fri Apr  7 17:36:14 2023

# Additional information:
#  created from MB distrubtion
#  T = 300.0 K
#  quantum:             False
#  deterministic:       False
#  plus_minus:          False
#  gauge_eigenvectors:  False
#  Random seed:         344431760
#  Sample number:       1
#=======================================================
lattice_vector 58.1726292744350886 0.0000000000000000 0.0000000000000000 
lattice_vector 0.0000000000000000 41.9566952548202039 0.0000000000000000 
lattice_vector 0.0000000000000000 0.0000000000000000 44.0422152496701003 
atom 9.9860094894972473 3.1467521441115154 0.1447889795856728 Se
    velocity 2.2270591076205748 -1.2007756979618218 0.9650386409164110
atom 21.6205353443842618 3.1467521441115154 0.1447889795856728 Se
    velocity 2.6796193978963605 2.0527426310572086 -0.1712206031894214
atom 33.2550611992712817 3.1467521441115154 0.1447889795856728 Se
    velocity -0.2287021358576731 0.2062658710797651 -1.4635701955858094
atom 44.8895870541582980 3.1467521441115154 0.1447889795856728 Se
    velocity 1.7973985243529340 -1.6150917547135808 0.0588864527602045
atom 56.5241129090453143 3.1467521441115154 0.1447889795856728 Se
    velocity 1.4034772578354340 -3.9573277285183286 -0.2160698230355823
atom 9.9860094894972473 7.3424216695935351 0.1447889795856728 Se
    velocity 0.0769718738269390 0.6699455119473429 -3.2581901419778436
atom 21.6205353443842618 7.3424216695935351 0.1447889795856728 Se
    velocity -0.9577733324440714 0.4654058502087060 0.3321498641917205
atom 33.2550611992712817 7.3424216695935351 0.1447889795856728 Se
    velocity 1.4451654804830267 -1.2130764219288641 -0.9851625194061990
atom 44.8895870541582980 7.3424216695935351 0.1447889795856728 Se
    velocity 0.1791837673680281 1.5054680673281322 -0.2473116213899550
atom 56.5241129090453143 7.3424216695935351 0.1447889795856728 Se
    velocity -0.6067981476317880 -1.6678812097960869 4.4688535944239494
atom 9.9860094894972473 11.5380911950755571 0.1447889795856728 Se
    velocity -0.7741011481245870 0.5424368846122865 0.1507536302344457
atom 21.6205353443842618 11.5380911950755571 0.1447889795856728 Se
    velocity 0.0467035508046399 -1.6751707012661508 1.8895974482488973
atom 33.2550611992712817 11.5380911950755571 0.1447889795856728 Se
    velocity -1.2470964368730140 -0.0195290539845344 -1.5280327258098458
atom 44.8895870541582980 11.5380911950755571 0.1447889795856728 Se
    velocity -0.7912648699543962 -0.8363197405871976 -3.8833723434586549
atom 56.5241129090453143 11.5380911950755571 0.1447889795856728 Se
    velocity 0.2408227027507366 0.8691974938528049 -1.5955548605630032
atom 9.9860094894972473 15.7337607205575765 0.1447889795856728 Se
    velocity -3.5560946115951926 0.7713805258034921 0.4758589805605185
atom 21.6205353443842618 15.7337607205575765 0.1447889795856728 Se
    velocity 1.2732130603355598 -0.6892469417319335 -1.3876472893562715
atom 33.2550611992712817 15.7337607205575765 0.1447889795856728 Se
    velocity 1.5658160014019846 -0.8394167978844014 1.1328381214221404
atom 44.8895870541582980 15.7337607205575765 0.1447889795856728 Se
    velocity -2.8537582627196465 -0.7693465500525501 -1.0439655071485894
atom 56.5241129090453143 15.7337607205575765 0.1447889795856728 Se
    velocity -2.1368766781100450 1.5280049590557088 -1.4167838100538821
atom 9.9860094894972473 19.9294302460395976 0.1447889795856728 Se
    velocity 0.0963441475575350 -0.0426921103831192 1.5940769237558177
atom 21.6205353443842618 19.9294302460395976 0.1447889795856728 Se
    velocity 1.3578331754465269 0.9166726913320979 -0.7219225407648538
atom 33.2550611992712817 19.9294302460395976 0.1447889795856728 Se
    velocity 0.2580585888595260 -0.7002728940944773 0.9991850621397296
atom 44.8895870541582980 19.9294302460395976 0.1447889795856728 Se
    velocity -1.6480126681069243 2.6330831441629581 -0.1938271361017498
atom 56.5241129090453143 19.9294302460395976 0.1447889795856728 Se
    velocity 2.2895847749716727 0.6336098949670167 2.0029536287401646
atom 9.9860094894972473 24.1250997715216187 0.1447889795856728 Se
    velocity -3.0018775801917399 -1.1102085294112121 0.6448520979280984
atom 21.6205353443842618 24.1250997715216187 0.1447889795856728 Se
    velocity 0.3264459281295489 3.1120658201275067 -0.4560380212983420
atom 33.2550611992712817 24.1250997715216187 0.1447889795856728 Se
    velocity 0.4265258384793758 1.4528735758500630 2.4692184716630248
atom 44.8895870541582980 24.1250997715216187 0.1447889795856728 Se
    velocity -1.1072797295487771 -0.8045107557404269 -1.2100019104048552
atom 56.5241129090453143 24.1250997715216187 0.1447889795856728 Se
    velocity 2.3932916637439079 1.4397188925288866 -0.4303088158900185
atom 9.9860094894972473 28.3207692970036398 0.1447889795856728 Se
    velocity -0.5063157699557337 2.0694637241108054 -1.4686897317312919
atom 21.6205353443842618 28.3207692970036398 0.1447889795856728 Se
    velocity 2.7654792113809501 -2.8305612574901113 -2.5686191443195172
atom 33.2550611992712817 28.3207692970036398 0.1447889795856728 Se
    velocity -0.1770628470072370 -2.9210810122521482 0.0985854628374323
atom 44.8895870541582980 28.3207692970036398 0.1447889795856728 Se
    velocity -0.9987183018487058 2.6209298811920836 1.5529897498650875
atom 56.5241129090453143 28.3207692970036398 0.1447889795856728 Se
    velocity -2.1702366528950554 -0.8699964857741715 0.0455897504585680
atom 9.9860094894972473 32.5164388224856609 0.1447889795856728 Se
    velocity 1.5104252768478696 -0.1687830001207068 -0.4459229406351097
atom 21.6205353443842618 32.5164388224856609 0.1447889795856728 Se
    velocity -2.1702952247069174 0.0177941108189369 0.8073458765205475
atom 33.2550611992712817 32.5164388224856609 0.1447889795856728 Se
    velocity -1.2086169684601793 3.8789215118316833 1.7640879449256710
atom 44.8895870541582980 32.5164388224856609 0.1447889795856728 Se
    velocity 0.0332914199651451 -0.1048428439034476 0.9130036833928346
atom 56.5241129090453143 32.5164388224856609 0.1447889795856728 Se
    velocity -0.5543107151835519 0.4433551749629739 -0.4005121859292724
atom 9.9860094894972473 36.7121083479676784 0.1447889795856728 Se
    velocity 1.6891245849319032 2.4489328941555808 1.4483366423338404
atom 21.6205353443842618 36.7121083479676784 0.1447889795856728 Se
    velocity 0.4722317108472582 -1.0025432484420789 -0.1018648528890869
atom 33.2550611992712817 36.7121083479676784 0.1447889795856728 Se
    velocity 1.0323397727555557 -0.8765183967666713 -1.0739511273309876
atom 44.8895870541582980 36.7121083479676784 0.1447889795856728 Se
    velocity -0.6528541403449359 -4.5219312124065878 -0.3937558355938294
atom 56.5241129090453143 36.7121083479676784 0.1447889795856728 Se
    velocity -2.6206362961653560 0.2802828962372304 -2.1665334619630032
atom 9.9860094894972473 40.9077778734497102 0.1447889795856728 Se
    velocity 1.4854131206682555 -2.0751625213362317 2.9776675875614793
atom 21.6205353443842618 40.9077778734497102 0.1447889795856728 Se
    velocity 0.5663031059369588 -2.8340425736490085 0.0476595669697465
atom 33.2550611992712817 40.9077778734497102 0.1447889795856728 Se
    velocity -0.0939373109467230 -1.1816117707893299 -3.4859097880415089
atom 44.8895870541582980 40.9077778734497102 0.1447889795856728 Se
    velocity -0.0993206532473211 0.1690646516878010 -1.0314685277269149
atom 56.5241129090453143 40.9077778734497102 0.1447889795856728 Se
    velocity -0.3856745362787669 0.3590295273503507 2.4658594233976250
atom 9.9860094894972473 3.1467521441115154 4.5490105045526823 Se
    velocity -1.7321744831706398 -0.7932911467504797 -0.0422087504774503
atom 21.6205353443842618 3.1467521441115154 4.5490105045526823 Se
    velocity 1.8903506067142901 -1.7254648385566307 3.5127742544384852
atom 33.2550611992712817 3.1467521441115154 4.5490105045526823 Se
    velocity 0.7752719817699276 -0.6055124509321582 1.2042008237910071
atom 44.8895870541582980 3.1467521441115154 4.5490105045526823 Se
    velocity 1.1313153033283869 -0.4740375052645905 -1.4454032768203953
atom 56.5241129090453143 3.1467521441115154 4.5490105045526823 Se
    velocity -2.8301328959212042 -0.2254934105536932 3.0641236927128328
atom 9.9860094894972473 7.3424216695935351 4.5490105045526823 Se
    velocity 1.4080304144612033 -0.9091819546567083 0.2901196668011186
atom 21.6205353443842618 7.3424216695935351 4.5490105045526823 Se
    velocity -1.1837240456813494 -0.1888969191002134 1.4724413194043187
atom 33.2550611992712817 7.3424216695935351 4.5490105045526823 Se
    velocity -1.3965888047519384 -2.5545851683323599 1.3832432277459228
atom 44.8895870541582980 7.3424216695935351 4.5490105045526823 Se
    velocity 0.8542545726940861 1.6181233302888243 -1.8799662065561284
atom 56.5241129090453143 7.3424216695935351 4.5490105045526823 Se
    velocity -0.2869798232064166 -3.0714995864495984 2.8216058190258804
atom 9.9860094894972473 11.5380911950755571 4.5490105045526823 Se
    velocity -1.0901735678732278 -0.4016770352281414 -1.3291249047208453
atom 21.6205353443842618 11.5380911950755571 4.5490105045526823 Se
    velocity -1.1201247632759417 0.8672455039352321 -0.2628096954920522
atom 33.2550611992712817 11.5380911950755571 4.5490105045526823 Se
    velocity -0.7538603751261392 -0.3352408678799988 -1.3497010728892160
atom 44.8895870541582980 11.5380911950755571 4.5490105045526823 Se
    velocity -1.9000995814214119 3.5949285791853063 1.1370923067239198
atom 56.5241129090453143 11.5380911950755571 4.5490105045526823 Se
    velocity -0.3443734406332553 -0.2676692131132361 -0.7697178792643057
atom 9.9860094894972473 15.7337607205575765 4.5490105045526823 Se
    velocity -0.3358099928598759 1.8376837600108689 2.0801546435285236
atom 21.6205353443842618 15.7337607205575765 4.5490105045526823 Se
    velocity 0.0051106388201771 0.9079102100322830 1.9853278377578991
atom 33.2550611992712817 15.7337607205575765 4.5490105045526823 Se
    velocity 0.0731491105796871 2.0690204138216370 -4.4175324760639940
atom 44.8895870541582980 15.7337607205575765 4.5490105045526823 Se
    velocity -1.2419303913273942 1.0780345917823613 1.4196641113573234
atom 56.5241129090453143 15.7337607205575765 4.5490105045526823 Se
    velocity 0.6865981276194204 0.4630582466781202 1.1305716990842298
atom 9.9860094894972473 19.9294302460395976 4.5490105045526823 Se
    velocity 1.2463836930058987 -1.2142030474496595 0.7838842854011708
atom 21.6205353443842618 19.9294302460395976 4.5490105045526823 Se
    velocity -0.7826032629352289 -0.5076940679365278 1.3195945317464799
atom 33.2550611992712817 19.9294302460395976 4.5490105045526823 Se
    velocity -2.6813560525200471 -0.5222088858467487 0.3941028909742680
atom 44.8895870541582980 19.9294302460395976 4.5490105045526823 Se
    velocity 1.6383799727684103 4.7242626004828976 1.6586363912954269
atom 56.5241129090453143 19.9294302460395976 4.5490105045526823 Se
    velocity -2.1644618810265697 -1.4963072769052388 1.1182238802859348
atom 9.9860094894972473 24.1250997715216187 4.5490105045526823 Se
    velocity -1.4249009881720323 2.1206272345165216 1.7964056595243172
atom 21.6205353443842618 24.1250997715216187 4.5490105045526823 Se
    velocity -0.9170041444225048 -2.6316881324201300 -1.8656935093278133
atom 33.2550611992712817 24.1250997715216187 4.5490105045526823 Se
    velocity -1.1459628761853748 0.3260032122649237 1.9779018660958989
atom 44.8895870541582980 24.1250997715216187 4.5490105045526823 Se
    velocity 1.1103535151512351 2.5905206345713769 -1.0289179478809665
atom 56.5241129090453143 24.1250997715216187 4.5490105045526823 Se
    velocity -1.1695471433750997 0.6101152855133134 3.5281504699724717
atom 9.9860094894972473 28.3207692970036398 4.5490105045526823 Se
    velocity -0.6213490936989569 -2.6916500914267307 -1.1616841422961921
atom 21.6205353443842618 28.3207692970036398 4.5490105045526823 Se
    velocity -2.9456165534284797 -3.0989063435012247 0.9372099830920931
atom 33.2550611992712817 28.3207692970036398 4.5490105045526823 Se
    velocity 0.0163289384537857 -0.2947703487160575 -0.2136775545266243
atom 44.8895870541582980 28.3207692970036398 4.5490105045526823 Se
    velocity 3.7132736288803105 3.3163026335439252 0.4587252637211250
atom 56.5241129090453143 28.3207692970036398 4.5490105045526823 Se
    velocity -0.3995086188330932 1.9127664478349833 0.2473130136368323
atom 9.9860094894972473 32.5164388224856609 4.5490105045526823 Se
    velocity -2.0961726014474791 -0.1537508144031782 -0.2437430462043815
atom 21.6205353443842618 32.5164388224856609 4.5490105045526823 Se
    velocity -1.1978864364981701 -0.4867074358873643 0.5681899039374543
atom 33.2550611992712817 32.5164388224856609 4.5490105045526823 Se
    velocity 0.2600874143846750 -2.5057487670525220 0.0510247827254995
atom 44.8895870541582980 32.5164388224856609 4.5490105045526823 Se
    velocity 0.3642953169968575 1.8310634915136839 -3.5244769408869803
atom 56.5241129090453143 32.5164388224856609 4.5490105045526823 Se
    velocity -0.9734173179679978 -0.8021199867161066 0.8412067518477466
atom 9.9860094894972473 36.7121083479676784 4.5490105045526823 Se
    velocity -0.7460878257281574 0.1556244552211585 -0.6257136017739190
atom 21.6205353443842618 36.7121083479676784 4.5490105045526823 Se
    velocity 0.0502309638772115 0.9328134529543763 1.7385262633907108
atom 33.2550611992712817 36.7121083479676784 4.5490105045526823 Se
    velocity -2.3374994282259842 -2.2638352570945441 4.3511898504604822
atom 44.8895870541582980 36.7121083479676784 4.5490105045526823 Se
    velocity 3.2157239870707190 -0.8778899001800322 1.6664518502489736
atom 56.5241129090453143 36.7121083479676784 4.5490105045526823 Se
    velocity -0.5766093462012070 0.4852833692064385 3.0828114649395091
atom 9.9860094894972473 40.9077778734497102 4.5490105045526823 Se
    velocity -4.5333713710497863 -0.6519509466588981 -2.7726106930919729
atom 21.6205353443842618 40.9077778734497102 4.5490105045526823 Se
    velocity -0.8334653248215186 1.8329735892487646 -1.1792224306713830
atom 33.2550611992712817 40.9077778734497102 4.5490105045526823 Se
    velocity -2.3073436163621754 0.6978545728943243 1.5205222549903519
atom 44.8895870541582980 40.9077778734497102 4.5490105045526823 Se
    velocity 1.1366395410924868 -3.5202824074669126 -2.8714533350765143
atom 56.5241129090453143 40.9077778734497102 4.5490105045526823 Se
    velocity -1.0757735827743942 1.3932981226001426 -2.6812958032588732
atom 9.9860094894972473 3.1467521441115154 8.9532320295196932 Se
    velocity -1.9864262243471362 0.4566456710957223 2.1107913311860198
atom 21.6205353443842618 3.1467521441115154 8.9532320295196932 Se
    velocity -1.5803664697676012 -0.2788152352082024 -0.5033335638139065
atom 33.2550611992712817 3.1467521441115154 8.9532320295196932 Se
    velocity 2.4887473263149609 2.6516466289926064 0.1786607268879509
atom 44.8895870541582980 3.1467521441115154 8.9532320295196932 Se
    velocity -1.6955632649705410 1.1942517474279850 -0.5582930285547699
atom 56.5241129090453143 3.1467521441115154 8.9532320295196932 Se
    velocity -2.4396049866307270 -2.0164480002072591 -0.2478928554258851
atom 9.9860094894972473 7.3424216695935351 8.9532320295196932 Se
    velocity 0.6136987641173873 -0.3392079573050847 1.3471012173365684
atom 21.6205353443842618 7.3424216695935351 8.9532320295196932 Se
    velocity -1.1138053557577225 -0.5948377402993620 -0.1306506188620489
atom 33.2550611992712817 7.3424216695935351 8.9532320295196932 Se
    velocity 2.7109872147943306 0.0707097281049858 0.6132679383691234
atom 44.8895870541582980 7.3424216695935351 8.9532320295196932 Se
    velocity -1.2941627304219137 -3.4499865764946187 2.2257948670940655
atom 56.5241129090453143 7.3424216695935351 8.9532320295196932 Se
    velocity 0.9151581153536258 -0.3247280260753208 1.5729664786556483
atom 9.9860094894972473 11.5380911950755571 8.9532320295196932 Se
    velocity -0.5259691792096034 -0.4724657291216811 0.2201996236581887
atom 21.6205353443842618 11.5380911950755571 8.9532320295196932 Se
    velocity 0.4501918704430791 1.2617887076116479 -0.7089595536641921
atom 33.2550611992712817 11.5380911950755571 8.9532320295196932 Se
    velocity -3.1430311100252943 2.4242631733983706 -3.3683100484903017
atom 44.8895870541582980 11.5380911950755571 8.9532320295196932 Se
    velocity -1.1310285257654049 -0.5887681313267561 -1.3809128759925993
atom 56.5241129090453143 11.5380911950755571 8.9532320295196932 Se
    velocity -1.1572715153789399 1.2890692501411276 -0.2104333987740757
atom 9.9860094894972473 15.7337607205575765 8.9532320295196932 Se
    velocity -0.0568238503857679 -0.9724915204114063 3.1436195869740433
atom 21.6205353443842618 15.7337607205575765 8.9532320295196932 Se
    velocity -0.4557034936967566 0.0202370324916472 1.3782122783181869
atom 33.2550611992712817 15.7337607205575765 8.9532320295196932 Se
    velocity -0.0769795290853391 5.1082868855966428 -1.0472596148393378
atom 44.8895870541582980 15.7337607205575765 8.9532320295196932 Se
    velocity -0.1031668829766618 2.1287202689638782 1.5351976451083429
atom 56.5241129090453143 15.7337607205575765 8.9532320295196932 Se
    velocity 2.1244459960760760 -2.4379974082034854 -0.4478507252392832
atom 9.9860094894972473 19.9294302460395976 8.9532320295196932 Se
    velocity 0.0180090423817347 0.0295575976093506 -1.7073740131846891
atom 21.6205353443842618 19.9294302460395976 8.9532320295196932 Se
    velocity 0.8443918078601842 -1.5806095138624490 -1.4815415740526128
atom 33.2550611992712817 19.9294302460395976 8.9532320295196932 Se
    velocity 0.9153595321909243 3.3913002162488977 -1.3576612139036699
atom 44.8895870541582980 19.9294302460395976 8.9532320295196932 Se
    velocity -2.8244433892888319 0.9798928358763487 -1.7348354490260320
atom 56.5241129090453143 19.9294302460395976 8.9532320295196932 Se
    velocity 2.0146392191828340 3.2326786518230142 -0.9496963568374036
atom 9.9860094894972473 24.1250997715216187 8.9532320295196932 Se
    velocity -3.3421177196671872 0.6525700580364791 1.7597875819589912
atom 21.6205353443842618 24.1250997715216187 8.9532320295196932 Se
    velocity 1.9152452239959814 3.3992042392302864 2.6570194779126730
atom 33.2550611992712817 24.1250997715216187 8.9532320295196932 Se
    velocity -4.0153118072757596 1.0722031456530281 -1.4785041409631121
atom 44.8895870541582980 24.1250997715216187 8.9532320295196932 Se
    velocity 1.8267725559772723 -0.3786996233192945 1.1988053887768042
atom 56.5241129090453143 24.1250997715216187 8.9532320295196932 Se
    velocity -1.0179676400681728 0.5607036652209628 -0.8700256100836955
atom 9.9860094894972473 28.3207692970036398 8.9532320295196932 Se
    velocity -1.6576322521601654 -2.0544994061367414 -0.8560092028052044
atom 21.6205353443842618 28.3207692970036398 8.9532320295196932 Se
    velocity -3.6326301852234639 -1.1454160318683582 -0.1048280769841118
atom 33.2550611992712817 28.3207692970036398 8.9532320295196932 Se
    velocity -1.5178485397614776 -6.3845921610134946 -0.4791986722573680
atom 44.8895870541582980 28.3207692970036398 8.9532320295196932 Se
    velocity -2.5380294495098443 0.4671819242756505 2.0308873065454325
atom 56.5241129090453143 28.3207692970036398 8.9532320295196932 Se
    velocity 2.8676407270086473 4.5314631190544477 0.9943560724353008
atom 9.9860094894972473 32.5164388224856609 8.9532320295196932 Se
    velocity 0.9444593193448219 -2.1207686513271371 0.1578984747651849
atom 21.6205353443842618 32.5164388224856609 8.9532320295196932 Se
    velocity 1.5190395704951107 -0.4991149778750325 -0.5268578108461032
atom 33.2550611992712817 32.5164388224856609 8.9532320295196932 Se
    velocity 0.7209615892064400 0.6737105839334053 1.8861465776791180
atom 44.8895870541582980 32.5164388224856609 8.9532320295196932 Se
    velocity -0.3954162301872389 -0.4192577007083401 0.3909658467064888
atom 56.5241129090453143 32.5164388224856609 8.9532320295196932 Se
    velocity -0.0396535193220545 -1.4151192988216272 2.5726601812927168
atom 9.9860094894972473 36.7121083479676784 8.9532320295196932 Se
    velocity -1.4080725942506311 -1.5982045464457988 -1.9375069597686034
atom 21.6205353443842618 36.7121083479676784 8.9532320295196932 Se
    velocity 0.2396754068983949 -2.3210104863959282 3.7101411955230676
atom 33.2550611992712817 36.7121083479676784 8.9532320295196932 Se
    velocity 1.7026860014973084 3.3814672035363369 -1.0681947110898891
atom 44.8895870541582980 36.7121083479676784 8.9532320295196932 Se
    velocity -1.3904704820936762 0.2377084964068726 1.2390530425174826
atom 56.5241129090453143 36.7121083479676784 8.9532320295196932 Se
    velocity -0.9242197454212207 -1.2316161436120758 -0.0107135585046615
atom 9.9860094894972473 40.9077778734497102 8.9532320295196932 Se
    velocity 4.2342637817720501 -1.2190486574247481 2.2865443347649310
atom 21.6205353443842618 40.9077778734497102 8.9532320295196932 Se
    velocity 0.6264501507116730 2.6902617465762888 -0.6704641763732255
atom 33.2550611992712817 40.9077778734497102 8.9532320295196932 Se
    velocity 0.9103158288125254 -3.4795971672835444 0.0760773413767276
atom 44.8895870541582980 40.9077778734497102 8.9532320295196932 Se
    velocity -0.1554780784966288 -0.0912228596306306 0.3824882103824023
atom 56.5241129090453143 40.9077778734497102 8.9532320295196932 Se
    velocity 0.6228742878022300 -0.7054471259259286 0.4913687930336084
atom 9.9860094894972473 3.1467521441115154 13.3574535544867032 Se
    velocity -1.0342352967787238 -1.3643634485153875 0.3457786661847800
atom 21.6205353443842618 3.1467521441115154 13.3574535544867032 Se
    velocity -3.1247644406443111 -1.5427327402438933 3.4786312311467404
atom 33.2550611992712817 3.1467521441115154 13.3574535544867032 Se
    velocity -3.6614681474286943 -0.4405577836771370 -2.8363970385691548
atom 44.8895870541582980 3.1467521441115154 13.3574535544867032 Se
    velocity 0.8446987523644901 -2.4424491578634600 2.8078596204677866
atom 56.5241129090453143 3.1467521441115154 13.3574535544867032 Se
    velocity 1.4090179530143463 -1.2767344202282727 -0.9407550068066630
atom 9.9860094894972473 7.3424216695935351 13.3574535544867032 Se
    velocity -1.3510559813391552 0.1388723768427884 1.0475587980401757
atom 21.6205353443842618 7.3424216695935351 13.3574535544867032 Se
    velocity -0.5365722204294480 2.1323070488186926 1.0253368527118412
atom 33.2550611992712817 7.3424216695935351 13.3574535544867032 Se
    velocity 1.0796802178621840 0.1239564597260234 -0.9338866583432022
atom 44.8895870541582980 7.3424216695935351 13.3574535544867032 Se
    velocity -1.3540400914621968 -0.1285110138539172 1.1128189048635095
atom 56.5241129090453143 7.3424216695935351 13.3574535544867032 Se
    velocity 1.6711636745382537 -2.1416066476128504 0.1314560122166028
atom 9.9860094894972473 11.5380911950755571 13.3574535544867032 Se
    velocity -0.1685306710481043 0.4382144176758694 -0.8756413112395628
atom 21.6205353443842618 11.5380911950755571 13.3574535544867032 Se
    velocity 1.3297231112204539 -1.1568129074831182 -0.3290813559484967
atom 33.2550611992712817 11.5380911950755571 13.3574535544867032 Se
    velocity 3.1240354277147588 -0.4316909856818782 -0.5048293477831733
atom 44.8895870541582980 11.5380911950755571 13.3574535544867032 Se
    velocity -1.9214647167578172 0.5563418589979259 0.6492176078349152
atom 56.5241129090453143 11.5380911950755571 13.3574535544867032 Se
    velocity -0.9116244956367338 -1.9653399004909418 -1.5613940388150822
atom 9.9860094894972473 15.7337607205575765 13.3574535544867032 Se
    velocity -1.9949993499314700 1.2659777685580844 4.2212232832790546
atom 21.6205353443842618 15.7337607205575765 13.3574535544867032 Se
    velocity -0.5804924177831342 0.2440078718787395 0.0117962982805956
atom 33.2550611992712817 15.7337607205575765 13.3574535544867032 Se
    velocity -0.2636395561637208 -0.0206384752049663 -0.1081271050393668
atom 44.8895870541582980 15.7337607205575765 13.3574535544867032 Se
    velocity -0.4430826512608693 0.4358317437257576 -1.9177095528358619
atom 56.5241129090453143 15.7337607205575765 13.3574535544867032 Se
    velocity -1.6785913809151685 -2.3775067319940617 -1.9696110156759610
atom 9.9860094894972473 19.9294302460395976 13.3574535544867032 Se
    velocity -2.2147282044906360 -1.6032915104662342 -1.5354044688285935
atom 21.6205353443842618 19.9294302460395976 13.3574535544867032 Se
    velocity -2.8615747942059424 2.0888773308170134 -2.4627571450234793
atom 33.2550611992712817 19.9294302460395976 13.3574535544867032 Se
    velocity -0.3209653660023035 1.7408427444580346 -1.1196062351530465
atom 44.8895870541582980 19.9294302460395976 13.3574535544867032 Se
    velocity 0.9634386238336226 -0.8621236270289204 1.0379402981418839
atom 56.5241129090453143 19.9294302460395976 13.3574535544867032 Se
    velocity 2.6754101611281169 3.1118935718580882 -0.2705379356340290
atom 9.9860094894972473 24.1250997715216187 13.3574535544867032 Se
    velocity 0.6671005959688697 2.2056394597034328 -1.7273772575747999
atom 21.6205353443842618 24.1250997715216187 13.3574535544867032 Se
    velocity 0.8274399894256075 -0.8786750562079622 -0.6333704245469428
atom 33.2550611992712817 24.1250997715216187 13.3574535544867032 Se
    velocity -0.6096946787514563 1.0951826976041934 2.7258435981568345
atom 44.8895870541582980 24.1250997715216187 13.3574535544867032 Se
    velocity 0.0588381558535419 -0.7896271482402922 -1.1362608932368568
atom 56.5241129090453143 24.1250997715216187 13.3574535544867032 Se
    velocity 1.3622894667326653 0.0218443171787438 -0.7616507683781489
atom 9.9860094894972473 28.3207692970036398 13.3574535544867032 Se
    velocity -2.5325412696657881 0.0009576117929480 -3.7404303112223736
atom 21.6205353443842618 28.3207692970036398 13.3574535544867032 Se
    velocity 1.5307079192955206 0.4756960690849457 1.3137192847129944
atom 33.2550611992712817 28.3207692970036398 13.3574535544867032 Se
    velocity 2.5250279303413410 1.9511705174733680 0.7838781668177183
atom 44.8895870541582980 28.3207692970036398 13.3574535544867032 Se
    velocity -0.7909611565331077 1.7724713444761548 1.9098271538401888
atom 56.5241129090453143 28.3207692970036398 13.3574535544867032 Se
    velocity 1.5081841461155552 0.8875638240567463 4.8579645868461849
atom 9.9860094894972473 32.5164388224856609 13.3574535544867032 Se
    velocity -0.2390916012850515 0.7300251340481576 -0.8519035218144217
atom 21.6205353443842618 32.5164388224856609 13.3574535544867032 Se
    velocity -1.4107214683588836 -0.0901193270368885 0.0320618875994212
atom 33.2550611992712817 32.5164388224856609 13.3574535544867032 Se
    velocity 2.7362833722391509 -2.2840348866466877 0.3842883122071195
atom 44.8895870541582980 32.5164388224856609 13.3574535544867032 Se
    velocity 0.7584003053942384 0.3987681345154941 -0.0040271490384875
atom 56.5241129090453143 32.5164388224856609 13.3574535544867032 Se
    velocity -0.1810081397972142 2.2839259399408842 1.4116442166649219
atom 9.9860094894972473 36.7121083479676784 13.3574535544867032 Se
    velocity -0.0731017701347619 3.8003982412352451 -1.4924844225428096
atom 21.6205353443842618 36.7121083479676784 13.3574535544867032 Se
    velocity 2.7587811918165830 -0.0642136907583306 -2.3470027193535619
atom 33.2550611992712817 36.7121083479676784 13.3574535544867032 Se
    velocity -0.8341029468671135 3.7698658697526355 1.0298406469652606
atom 44.8895870541582980 36.7121083479676784 13.3574535544867032 Se
    velocity 0.0977330914176473 0.9636246823034968 1.4068836975057317
atom 56.5241129090453143 36.7121083479676784 13.3574535544867032 Se
    velocity 2.6505159065084372 -0.3071326559172710 -2.5709917789315968
atom 9.9860094894972473 40.9077778734497102 13.3574535544867032 Se
    velocity -0.7546436465949972 -1.4493874045303718 0.3158167874489250
atom 21.6205353443842618 40.9077778734497102 13.3574535544867032 Se
    velocity -0.5186795809985545 0.0681737234074230 1.4962966443250763
atom 33.2550611992712817 40.9077778734497102 13.3574535544867032 Se
    velocity -4.5070764440918465 2.1286969095879891 -0.8722280480265672
atom 44.8895870541582980 40.9077778734497102 13.3574535544867032 Se
    velocity 0.5402808084016094 -0.9620039037502638 2.7061732566261054
atom 56.5241129090453143 40.9077778734497102 13.3574535544867032 Se
    velocity -0.5774442274569587 5.5016695661218229 -0.5522589038929235
atom 9.9860094894972473 3.1467521441115154 17.7616750794537133 Se
    velocity -1.4359153760691050 1.7076062369439136 4.3045436895219149
atom 21.6205353443842618 3.1467521441115154 17.7616750794537133 Se
    velocity 0.8623607856639893 0.6708740221998948 -0.7643440164212022
atom 33.2550611992712817 3.1467521441115154 17.7616750794537133 Se
    velocity -3.4546091291347651 -0.1019406395874301 -1.3760280950257195
atom 44.8895870541582980 3.1467521441115154 17.7616750794537133 Se
    velocity -1.2657561828301160 -0.7495892452646921 2.6474981417459502
atom 56.5241129090453143 3.1467521441115154 17.7616750794537133 Se
    velocity 4.2216034423677176 0.5374094942671638 -0.6436750696670667
atom 9.9860094894972473 7.3424216695935351 17.7616750794537133 Se
    velocity 3.2469372146877551 -1.4413512436371421 -3.3791796486659376
atom 21.6205353443842618 7.3424216695935351 17.7616750794537133 Se
    velocity -2.2845882477547534 -1.1060664128602395 -0.3750966547995043
atom 33.2550611992712817 7.3424216695935351 17.7616750794537133 Se
    velocity 3.0215433655450239 -1.4559989396620208 -0.1016958194379337
atom 44.8895870541582980 7.3424216695935351 17.7616750794537133 Se
    velocity -2.9911658032089008 -0.3674781219525284 2.3509558499837442
atom 56.5241129090453143 7.3424216695935351 17.7616750794537133 Se
    velocity 3.7242753141274112 -2.3237783150956863 1.2265335134285806
atom 9.9860094894972473 11.5380911950755571 17.7616750794537133 Se
    velocity 0.1981424624126691 -0.4806089296409715 1.7717629848140766