#=======================================================
# FHI-aims file: /Users/flokno/working/projects/so3krates/dev_SnSe/test_10_EOS_easy/so3krates_L1/eos/005/relaxation/geometry.in.next_step
# Created using the Atomic Simulation Environment (ASE)
# Fri Apr 14 11:25:12 2023

# Additional information:
#  Relaxed with BFGS, fmax=0.100 meV/AA
#  nsteps = 18
#  residual force  = 0.077476 meV/AA
#=======================================================
lattice_vector 11.5660029780460007 -0.0000000000000000 0.0000000000000000 
lattice_vector 0.0000000000000000 4.1821175382500000 0.0000000000000000 
lattice_vector 0.0000000000000000 0.0000000000000000 4.3792789849759997 
atom_frac 0.8586332747219999 0.7499999999999999 0.0324231368170000 Se
atom_frac 0.1413667252780000 0.2500000000000000 0.9675768631830000 Se
atom_frac 0.6413667252780000 0.2500000000000000 0.5324231368170000 Se
atom_frac 0.3586332747220000 0.7499999999999999 0.4675768631830000 Se
atom_frac 0.1204685079060000 0.7499999999999999 0.3999293856100000 Sn
atom_frac 0.8795314920939999 0.2500000000000000 0.6000706143900000 Sn
atom_frac 0.3795314920940000 0.2500000000000000 0.8999293856100000 Sn
atom_frac 0.6204685079060001 0.7499999999999999 0.1000706143900000 Sn
