#=======================================================
# FHI-aims file: /Users/flokno/working/projects/so3krates/dev_SnSe/test_10_EOS_easy/finer/so3krates_L3/eos/019/relaxation/geometry.in.next_step
# Created using the Atomic Simulation Environment (ASE)
# Mon Apr 17 17:26:05 2023

# Additional information:
#  Relaxed with BFGS, fmax=0.100 meV/AA
#  nsteps = 22
#  residual force  = 0.040059 meV/AA
#=======================================================
lattice_vector 11.6700970048479995 -0.0000000000000000 0.0000000000000000 
lattice_vector 0.0000000000000000 4.2197565960940002 0.0000000000000000 
lattice_vector 0.0000000000000000 0.0000000000000000 4.4186924958410003 
atom_frac 0.8578638045289999 0.7500000000000000 0.0331137010550000 Se
atom_frac 0.1421361954710000 0.2500000000000000 0.9668862989449999 Se
atom_frac 0.6421361954710000 0.2500000000000000 0.5331137010550000 Se
atom_frac 0.3578638045290000 0.7500000000000000 0.4668862989450000 Se
atom_frac 0.1215165665000000 0.7500000000000000 0.3913646538430000 Sn
atom_frac 0.8784834334999999 0.2500000000000000 0.6086353461570000 Sn
atom_frac 0.3784834335000000 0.2500000000000000 0.8913646538430000 Sn
atom_frac 0.6215165665000000 0.7500000000000000 0.1086353461570000 Sn
