#=======================================================
# FHI-aims file: /Users/flokno/working/projects/so3krates/dev_SnSe/test_10_EOS_easy/finer/so3krates_L3/eos/004/relaxation/geometry.in.next_step
# Created using the Atomic Simulation Environment (ASE)
# Mon Apr 17 17:20:45 2023

# Additional information:
#  Relaxed with BFGS, fmax=0.100 meV/AA
#  nsteps = 20
#  residual force  = 0.045082 meV/AA
#=======================================================
lattice_vector 11.4966069601779992 -0.0000000000000000 0.0000000000000000 
lattice_vector 0.0000000000000000 4.1570248330209996 0.0000000000000000 
lattice_vector 0.0000000000000000 0.0000000000000000 4.3530033110659998 
atom_frac 0.8588094834020001 0.7500000000000000 0.0327824501860000 Se
atom_frac 0.1411905165980000 0.2500000000000000 0.9672175498140001 Se
atom_frac 0.6411905165980000 0.2500000000000000 0.5327824501860000 Se
atom_frac 0.3588094834020000 0.7500000000000000 0.4672175498140000 Se
atom_frac 0.1191811572400000 0.7500000000000000 0.4025994515700000 Sn
atom_frac 0.8808188427600000 0.2500000000000000 0.5974005484300001 Sn
atom_frac 0.3808188427600000 0.2500000000000000 0.9025994515700000 Sn
atom_frac 0.6191811572400000 0.7500000000000000 0.0974005484300000 Sn
