#=======================================================
# FHI-aims file: /cfs/klemming/projects/snic/snic2021-1-10/dardel-test/flokno/projects/so3krates/dev_SnSe/test_10_EOS_easy/finer/dft_01/eos/018/relaxation/geometry.in.next_step
# Created using the Atomic Simulation Environment (ASE)
# Mon Apr 17 17:30:19 2023

# Additional information:
#  Relaxed with BFGS, fmax=0.100 meV/AA
#  nsteps = 22
#  residual force  = 0.020185 meV/AA
#=======================================================
lattice_vector 11.6585310018699992 -0.0000000000000000 0.0000000000000000 
lattice_vector 0.0000000000000000 4.2155744785560003 0.0000000000000000 
lattice_vector 0.0000000000000000 0.0000000000000000 4.4143132168559998 
atom_frac 0.8579195954679999 0.7499999983090000 0.0317317770840000 Se
atom_frac 0.1420803592550000 0.2500000969350000 0.9682681599980000 Se
atom_frac 0.6420803450850000 0.2500000041879999 0.5317317907260000 Se
atom_frac 0.3579196829140000 0.7500002075060000 0.4682682123780000 Se
atom_frac 0.1214319016340000 0.7499999567030000 0.3943984628070000 Sn
atom_frac 0.8785680548120000 0.2499999377560000 0.6056015657100000 Sn
atom_frac 0.3785681196620000 0.2499999247960000 0.8943985189270000 Sn
atom_frac 0.6214319411710000 0.7499998738079999 0.1056015123690000 Sn
