#=======================================================
# FHI-aims file: /Users/flokno/working/projects/so3krates/dev_SnSe/test_10_EOS_easy/so3krates_L1/eos/009/relaxation/geometry.in.next_step
# Created using the Atomic Simulation Environment (ASE)
# Fri Apr 14 11:25:56 2023

# Additional information:
#  Relaxed with BFGS, fmax=0.100 meV/AA
#  nsteps = 22
#  residual force  = 0.079061 meV/AA
#=======================================================
lattice_vector 11.7510590256949996 -0.0000000000000000 0.0000000000000000 
lattice_vector 0.0000000000000000 4.2490314188619998 0.0000000000000000 
lattice_vector 0.0000000000000000 0.0000000000000000 4.4493474487359999 
atom_frac 0.8584589791150000 0.7500000000000000 0.0419522945690000 Se
atom_frac 0.1415410208850000 0.2500000000000000 0.9580477054309999 Se
atom_frac 0.6415410208850000 0.2500000000000000 0.5419522945690000 Se
atom_frac 0.3584589791150000 0.7500000000000000 0.4580477054309999 Se
atom_frac 0.1240212922590000 0.7500000000000000 0.3795690368850000 Sn
atom_frac 0.8759787077410000 0.2500000000000000 0.6204309631150000 Sn
atom_frac 0.3759787077410000 0.2500000000000000 0.8795690368850000 Sn
atom_frac 0.6240212922590000 0.7500000000000000 0.1204309631150000 Sn
