#=======================================================
# FHI-aims file: /cfs/klemming/projects/snic/snic2021-1-10/dardel-test/flokno/projects/so3krates/dev_SnSe/test_10_EOS_easy/dft_01/eos/000/relaxation/geometry.in.next_step
# Created using the Atomic Simulation Environment (ASE)
# Fri Apr 14 09:38:21 2023

# Additional information:
#  Relaxed with BFGS, fmax=0.100 meV/AA
#  nsteps = 22
#  residual force  = 0.064069 meV/AA
#=======================================================
lattice_vector 11.3346829184850009 -0.0000000000000000 0.0000000000000000 
lattice_vector 0.0000000000000000 4.0984751874849996 0.0000000000000000 
lattice_vector 0.0000000000000000 0.0000000000000000 4.2916934052759999 
atom_frac 0.8594379604150000 0.7500000655250000 0.0296033045040000 Se
atom_frac 0.1405621285330000 0.2500000994510000 0.9703966534810001 Se
atom_frac 0.6405621551700000 0.2500000490360000 0.5296033152039999 Se
atom_frac 0.3594378551340000 0.7499998996300000 0.4703966323140000 Se
atom_frac 0.1173462811590000 0.7500001400910001 0.4148492544850000 Sn
atom_frac 0.8826536962259999 0.2499998660690000 0.5851507990400000 Sn
atom_frac 0.3826536316510000 0.2499998419700000 0.9148492234140000 Sn
atom_frac 0.6173462917130000 0.7500000382270000 0.0851508175590000 Sn
