#=======================================================
# FHI-aims file: /Users/flokno/working/projects/so3krates/dev_SnSe/test_10_EOS_easy/so3krates_L2/eos/003/relaxation/geometry.in.next_step
# Created using the Atomic Simulation Environment (ASE)
# Thu Apr 13 17:18:57 2023

# Additional information:
#  Relaxed with BFGS, fmax=0.100 meV/AA
#  nsteps = 22
#  residual force  = 0.015396 meV/AA
#=======================================================
lattice_vector 11.4734749542220005 -0.0000000000000000 0.0000000000000000 
lattice_vector 0.0000000000000000 4.1486605979439997 0.0000000000000000 
lattice_vector 0.0000000000000000 0.0000000000000000 4.3442447530959996 
atom_frac 0.8587191161530000 0.7500000000000000 0.0311461047060000 Se
atom_frac 0.1412808838470000 0.2500000000000000 0.9688538952940000 Se
atom_frac 0.6412808838470000 0.2500000000000000 0.5311461047070000 Se
atom_frac 0.3587191161530000 0.7500000000000000 0.4688538952940000 Se
atom_frac 0.1188847301870000 0.7500000000000000 0.4061299285660000 Sn
atom_frac 0.8811152698130000 0.2500000000000000 0.5938700714339999 Sn
atom_frac 0.3811152698130000 0.2500000000000000 0.9061299285660001 Sn
atom_frac 0.6188847301870000 0.7500000000000000 0.0938700714340000 Sn
