#=======================================================
# FHI-aims file: /Users/flokno/working/projects/so3krates/dev_SnSe/test_10_EOS_easy/finer/so3krates_L3/eos/000/relaxation/geometry.in.next_step
# Created using the Atomic Simulation Environment (ASE)
# Mon Apr 17 17:19:16 2023

# Additional information:
#  Relaxed with BFGS, fmax=0.100 meV/AA
#  nsteps = 22
#  residual force  = 0.030082 meV/AA
#=======================================================
lattice_vector 11.4503429482660000 -0.0000000000000000 0.0000000000000000 
lattice_vector 0.0000000000000000 4.1402963628679998 0.0000000000000000 
lattice_vector 0.0000000000000000 0.0000000000000000 4.3354861951260002 
atom_frac 0.8591300982840000 0.7500000000000000 0.0322999075010000 Se
atom_frac 0.1408699017150000 0.2500000000000000 0.9677000924990000 Se
atom_frac 0.6408699017150000 0.2500000000000000 0.5322999075009999 Se
atom_frac 0.3591300982840000 0.7500000000000000 0.4677000924990000 Se
atom_frac 0.1187738257450000 0.7500000000000000 0.4065703743060000 Sn
atom_frac 0.8812261742550000 0.2500000000000000 0.5934296256940000 Sn
atom_frac 0.3812261742550000 0.2500000000000000 0.9065703743060000 Sn
atom_frac 0.6187738257450000 0.7500000000000000 0.0934296256940000 Sn
