#=======================================================
# FHI-aims file: eos/008/geometry.in
# Created using the Atomic Simulation Environment (ASE)
# Mon Apr 17 17:07:00 2023
#=======================================================
lattice_vector 11.5428709720899079 -0.0000000000000000 0.0000000000000000 
lattice_vector 0.0000000000000000 4.1737533031735001 0.0000000000000000 
lattice_vector 0.0000000000000000 0.0000000000000000 4.3705204270060474 
atom 9.9073413477279555 3.1303149773801247 0.1436810544831269 Se
atom 1.6355296243619506 1.0434383257933750 4.2268393725229236 Se
atom 7.4069651104069028 1.0434383257933750 2.3289412679861479 Se
atom 4.1359058616830024 3.1303149773801247 2.0415791590198999 Se
atom 1.3844738452817884 3.1303149773801247 1.7393642188947855 Sn
atom 10.1583971268081381 1.0434383257933750 2.6311562081112627 Sn
atom 4.3869616407631655 1.0434383257933750 3.9246244323978097 Sn
atom 7.1559093313267406 3.1303149773801247 0.4458959946082426 Sn
