#=======================================================
# FHI-aims file: /Users/flokno/working/projects/so3krates/dev_SnSe/test_10_EOS_easy/finer/so3krates_L2/eos/018/relaxation/geometry.in.next_step
# Created using the Atomic Simulation Environment (ASE)
# Mon Apr 17 17:17:37 2023

# Additional information:
#  Relaxed with BFGS, fmax=0.100 meV/AA
#  nsteps = 22
#  residual force  = 0.019530 meV/AA
#=======================================================
lattice_vector 11.6585310018699992 -0.0000000000000000 0.0000000000000000 
lattice_vector 0.0000000000000000 4.2155744785560003 0.0000000000000000 
lattice_vector 0.0000000000000000 0.0000000000000000 4.4143132168559998 
atom_frac 0.8581948329830000 0.7500000000000000 0.0332632095960000 Se
atom_frac 0.1418051670170000 0.2500000000000000 0.9667367904039998 Se
atom_frac 0.6418051670170000 0.2500000000000000 0.5332632095960000 Se
atom_frac 0.3581948329830000 0.7500000000000000 0.4667367904040000 Se
atom_frac 0.1216892676600000 0.7500000000000000 0.3935173580840000 Sn
atom_frac 0.8783107323400000 0.2500000000000000 0.6064826419160000 Sn
atom_frac 0.3783107323400000 0.2500000000000000 0.8935173580840000 Sn
atom_frac 0.6216892676600000 0.7500000000000000 0.1064826419160000 Sn
