#=======================================================
# FHI-aims file: /Users/flokno/working/projects/so3krates/dev_SnSe/test_10_EOS_easy/so3krates_L2/eos/001/relaxation/geometry.in.next_step
# Created using the Atomic Simulation Environment (ASE)
# Thu Apr 13 17:18:23 2023

# Additional information:
#  Relaxed with BFGS, fmax=0.100 meV/AA
#  nsteps = 22
#  residual force  = 0.090928 meV/AA
#=======================================================
lattice_vector 11.3809469303970001 -0.0000000000000000 0.0000000000000000 
lattice_vector 0.0000000000000000 4.1152036576380002 0.0000000000000000 
lattice_vector 0.0000000000000000 0.0000000000000000 4.3092105212160003 
atom_frac 0.8591338089799999 0.7500000000000000 0.0303706752730000 Se
atom_frac 0.1408661910200000 0.2500000000000000 0.9696293247270001 Se
atom_frac 0.6408661910200000 0.2500000000000000 0.5303706752730000 Se
atom_frac 0.3591338089800000 0.7500000000000000 0.4696293247270000 Se
atom_frac 0.1178483285840000 0.7500000000000000 0.4133247491940000 Sn
atom_frac 0.8821516714159999 0.2500000000000000 0.5866752508060000 Sn
atom_frac 0.3821516714160000 0.2500000000000000 0.9133247491940001 Sn
atom_frac 0.6178483285840000 0.7500000000000000 0.0866752508060000 Sn
