#=======================================================
# FHI-aims file: /Users/flokno/working/projects/so3krates/dev_SnSe/test_10_EOS_easy/finer/so3krates_L2/eos/011/relaxation/geometry.in.next_step
# Created using the Atomic Simulation Environment (ASE)
# Mon Apr 17 17:15:44 2023

# Additional information:
#  Relaxed with BFGS, fmax=0.100 meV/AA
#  nsteps = 15
#  residual force  = 0.021632 meV/AA
#=======================================================
lattice_vector 11.5775689810239992 -0.0000000000000000 0.0000000000000000 
lattice_vector 0.0000000000000000 4.1862996557879999 0.0000000000000000 
lattice_vector 0.0000000000000000 0.0000000000000000 4.3836582639610002 
atom_frac 0.8584326227050000 0.7500000000000000 0.0322677638940000 Se
atom_frac 0.1415673772950000 0.2500000000000000 0.9677322361060000 Se
atom_frac 0.6415673772950000 0.2500000000000000 0.5322677638940000 Se
atom_frac 0.3584326227050000 0.7500000000000000 0.4677322361060000 Se
atom_frac 0.1204001932440000 0.7500000000000000 0.3988265279600000 Sn
atom_frac 0.8795998067560000 0.2500000000000000 0.6011734720400000 Sn
atom_frac 0.3795998067560000 0.2500000000000000 0.8988265279600000 Sn
atom_frac 0.6204001932440001 0.7500000000000000 0.1011734720400000 Sn
