#=======================================================
# FHI-aims file: ./geometry.in
# Created using the Atomic Simulation Environment (ASE)
# Mon Apr 17 17:28:27 2023
#=======================================================
lattice_vector 11.6816630078264616 -0.0000000000000000 0.0000000000000000 
lattice_vector 0.0000000000000000 4.2239387136325002 0.0000000000000000 
lattice_vector 0.0000000000000000 0.0000000000000000 4.4230717748257593 
atom_frac 0.8583082468549997 0.7500000000000000 0.0328750447190000 Se
atom_frac 0.1416917531450001 0.2500000000000000 0.9671249552810007 Se
atom_frac 0.6416917531449999 0.2500000000000000 0.5328750447189995 Se
atom_frac 0.3583082468549998 0.7500000000000000 0.4671249552810007 Se
atom_frac 0.1199418973520000 0.7500000000000000 0.3979764533640010 Sn
atom_frac 0.8800581026480016 0.2500000000000000 0.6020235466359993 Sn
atom_frac 0.3800581026479999 0.2500000000000000 0.8979764533640011 Sn
atom_frac 0.6199418973519998 0.7500000000000000 0.1020235466360001 Sn
