#=======================================================
# FHI-aims file: /Users/flokno/working/projects/so3krates/dev_SnSe/test_10_EOS_easy/finer/so3krates_L2/eos/003/relaxation/geometry.in.next_step
# Created using the Atomic Simulation Environment (ASE)
# Mon Apr 17 17:13:32 2023

# Additional information:
#  Relaxed with BFGS, fmax=0.100 meV/AA
#  nsteps = 22
#  residual force  = 0.010694 meV/AA
#=======================================================
lattice_vector 11.4850409572000007 -0.0000000000000000 0.0000000000000000 
lattice_vector 0.0000000000000000 4.1528427154819996 0.0000000000000000 
lattice_vector 0.0000000000000000 0.0000000000000000 4.3486240320810001 
atom_frac 0.8586828443610001 0.7500000000000000 0.0312565000460000 Se
atom_frac 0.1413171556390000 0.2500000000000000 0.9687434999540001 Se
atom_frac 0.6413171556390002 0.2500000000000000 0.5312565000460000 Se
atom_frac 0.3586828443610000 0.7500000000000000 0.4687434999540001 Se
atom_frac 0.1190410005940000 0.7500000000000000 0.4052904777290000 Sn
atom_frac 0.8809589994060001 0.2500000000000000 0.5947095222710002 Sn
atom_frac 0.3809589994060000 0.2500000000000000 0.9052904777290000 Sn
atom_frac 0.6190410005940000 0.7500000000000000 0.0947095222710000 Sn
