#=======================================================
# FHI-aims file: /Users/flokno/working/projects/so3krates/dev_SnSe/test_10_EOS_easy/finer/so3krates_L1/eos/020/relaxation/geometry.in.next_step
# Created using the Atomic Simulation Environment (ASE)
# Mon Apr 17 17:11:07 2023

# Additional information:
#  Relaxed with BFGS, fmax=0.100 meV/AA
#  nsteps = 22
#  residual force  = 0.039811 meV/AA
#=======================================================
lattice_vector 11.6816630078259998 -0.0000000000000000 0.0000000000000000 
lattice_vector 0.0000000000000000 4.2239387136320001 0.0000000000000000 
lattice_vector 0.0000000000000000 0.0000000000000000 4.4230717748260000 
atom_frac 0.8585681804629999 0.7500000000000000 0.0392663306880000 Se
atom_frac 0.1414318195370000 0.2500000000000000 0.9607336693119999 Se
atom_frac 0.6414318195370000 0.2500000000000000 0.5392663306880000 Se
atom_frac 0.3585681804630000 0.7500000000000000 0.4607336693119999 Se
atom_frac 0.1226344381200000 0.7500000000000000 0.3860032448610000 Sn
atom_frac 0.8773655618800000 0.2500000000000000 0.6139967551390000 Sn
atom_frac 0.3773655618799999 0.2500000000000000 0.8860032448610000 Sn
atom_frac 0.6226344381200000 0.7500000000000000 0.1139967551390000 Sn
