#=======================================================
# FHI-aims file: /Users/flokno/working/projects/so3krates/dev_SnSe/test_10_EOS_easy/finer/so3krates_L3/eos/015/relaxation/geometry.in.next_step
# Created using the Atomic Simulation Environment (ASE)
# Mon Apr 17 17:24:34 2023

# Additional information:
#  Relaxed with BFGS, fmax=0.100 meV/AA
#  nsteps = 21
#  residual force  = 0.012731 meV/AA
#=======================================================
lattice_vector 11.6238329929360003 -0.0000000000000000 0.0000000000000000 
lattice_vector 0.0000000000000000 4.2030281259409996 0.0000000000000000 
lattice_vector 0.0000000000000000 0.0000000000000000 4.4011753799009998 
atom_frac 0.8580865511630000 0.7500000000000000 0.0332190585230000 Se
atom_frac 0.1419134488370000 0.2500000000000000 0.9667809414770001 Se
atom_frac 0.6419134488370000 0.2500000000000000 0.5332190585230000 Se
atom_frac 0.3580865511630000 0.7500000000000000 0.4667809414770000 Se
atom_frac 0.1207683281920000 0.7500000000000000 0.3938174530330000 Sn
atom_frac 0.8792316718080000 0.2500000000000000 0.6061825469670000 Sn
atom_frac 0.3792316718080000 0.2500000000000000 0.8938174530329999 Sn
atom_frac 0.6207683281920000 0.7500000000000000 0.1061825469670000 Sn
