#=======================================================
# FHI-aims file: eos/018/geometry.in
# Created using the Atomic Simulation Environment (ASE)
# Mon Apr 17 17:11:54 2023
#=======================================================
lattice_vector 11.6585310018703687 -0.0000000000000000 0.0000000000000000 
lattice_vector 0.0000000000000000 4.2155744785560003 0.0000000000000000 
lattice_vector 0.0000000000000000 0.0000000000000000 4.4143132168558079 
atom 10.0066133051200215 3.1616808589169998 0.1451207444078075 Se
atom 1.6519176967503471 1.0538936196390001 4.2691924724480037 Se
atom 7.4811831976855308 1.0538936196390001 2.3522773528357086 Se
atom 4.1773478041848371 3.1616808589169998 2.0620358640200998 Se
atom 1.3983463287014457 3.1616808589169998 1.7567927180821081 Sn
atom 10.2601846731689417 1.0538936196390001 2.6575204987737000 Sn
atom 4.4309191722337387 1.0538936196390001 3.9639493265100123 Sn
atom 7.2276118296366283 3.1616808589169998 0.4503638903458002 Sn
