#=======================================================
# FHI-aims file: eos/000/geometry.in
# Created using the Atomic Simulation Environment (ASE)
# Fri Apr 14 09:34:59 2023
#=======================================================
lattice_vector 11.3346829184850808 -0.0000000000000000 0.0000000000000000 
lattice_vector 0.0000000000000000 4.0984751874849996 0.0000000000000000 
lattice_vector 0.0000000000000000 0.0000000000000000 4.2916934052764795 
atom 9.7286518244222417 3.0738563906137495 0.1410896126187017 Se
atom 1.6060310940628373 1.0246187968712499 4.1506037926577806 Se
atom 7.2733725533053768 1.0246187968712499 2.2869363152569391 Se
atom 4.0613103651797022 3.0738563906137495 2.0047570900195413 Se
atom 1.3595033751264056 3.0738563906137495 1.7079929203576052 Sn
atom 9.9751795433586938 1.0246187968712499 2.5837004849188752 Sn
atom 4.3078380841161348 1.0246187968712499 3.8538396229958449 Sn
atom 7.0268448343689442 3.0738563906137495 0.4378537822806390 Sn
