#=======================================================
# FHI-aims file: /Users/flokno/working/projects/so3krates/dev_SnSe/test_10_EOS_easy/finer/so3krates_L2/eos/019/relaxation/geometry.in.next_step
# Created using the Atomic Simulation Environment (ASE)
# Mon Apr 17 17:17:54 2023

# Additional information:
#  Relaxed with BFGS, fmax=0.100 meV/AA
#  nsteps = 22
#  residual force  = 0.032966 meV/AA
#=======================================================
lattice_vector 11.6700970048479995 -0.0000000000000000 0.0000000000000000 
lattice_vector 0.0000000000000000 4.2197565960940002 0.0000000000000000 
lattice_vector 0.0000000000000000 0.0000000000000000 4.4186924958410003 
atom_frac 0.8581533123790001 0.7500000000000000 0.0334041831560000 Se
atom_frac 0.1418466876210000 0.2500000000000000 0.9665958168440000 Se
atom_frac 0.6418466876209999 0.2500000000000000 0.5334041831560000 Se
atom_frac 0.3581533123790000 0.7500000000000000 0.4665958168439999 Se
atom_frac 0.1218770872660000 0.7500000000000000 0.3927887072610000 Sn
atom_frac 0.8781229127339999 0.2500000000000000 0.6072112927390000 Sn
atom_frac 0.3781229127340000 0.2500000000000000 0.8927887072610000 Sn
atom_frac 0.6218770872659999 0.7500000000000000 0.1072112927390000 Sn
