#=======================================================
# FHI-aims file: eos/013/geometry.in
# Created using the Atomic Simulation Environment (ASE)
# Mon Apr 17 17:07:00 2023
#=======================================================
lattice_vector 11.6007009869801401 -0.0000000000000000 0.0000000000000000 
lattice_vector 0.0000000000000000 4.1946638908647502 0.0000000000000000 
lattice_vector 0.0000000000000000 0.0000000000000000 4.3924168219309285 
atom 9.9569773264239902 3.1459979181485624 0.1444008994454672 Se
atom 1.6437236605561492 1.0486659727161876 4.2480159224854654 Se
atom 7.4440741540462181 1.0486659727161876 2.3406093104109291 Se
atom 4.1566268329339202 3.1459979181485624 2.0518075115200003 Se
atom 1.3914100869916173 3.1459979181485624 1.7480784684884474 Sn
atom 10.2092908999885417 1.0486659727161876 2.6443383534424822 Sn
atom 4.4089404064984521 1.0486659727161876 3.9442868794539123 Sn
atom 7.1917605804816862 3.1459979181485624 0.4481299424770215 Sn
