#=======================================================
# FHI-aims file: /cfs/klemming/projects/snic/snic2021-1-10/dardel-test/flokno/projects/so3krates/dev_SnSe/test_10_EOS_easy/finer/dft_01/eos/012/relaxation/geometry.in.next_step
# Created using the Atomic Simulation Environment (ASE)
# Mon Apr 17 17:27:02 2023

# Additional information:
#  Relaxed with BFGS, fmax=0.100 meV/AA
#  nsteps = 19
#  residual force  = 0.016445 meV/AA
#=======================================================
lattice_vector 11.5891349840019995 -0.0000000000000000 0.0000000000000000 
lattice_vector 0.0000000000000000 4.1904817733259998 0.0000000000000000 
lattice_vector 0.0000000000000000 0.0000000000000000 4.3880375429459999 
atom_frac 0.8582141804840000 0.7500000051120000 0.0326353165110000 Se
atom_frac 0.1417857159500000 0.2499999980760000 0.9673644714559999 Se
atom_frac 0.6417856668070000 0.2499999296530000 0.5326354054360000 Se
atom_frac 0.3582143917010000 0.7500000858300000 0.4673645017460000 Se
atom_frac 0.1202994708310000 0.7500000729730000 0.3970351032060000 Sn
atom_frac 0.8797004723909999 0.2499999360230000 0.6029651289240000 Sn
atom_frac 0.3797006335890000 0.2499999402880000 0.8970350801060000 Sn
atom_frac 0.6202994682480000 0.7500000320449999 0.1029649926150000 Sn
