#=======================================================
# FHI-aims file: /Users/flokno/working/projects/so3krates/dev_SnSe/test_10_EOS_easy/finer/so3krates_L1/eos/009/relaxation/geometry.in.next_step
# Created using the Atomic Simulation Environment (ASE)
# Mon Apr 17 17:09:11 2023

# Additional information:
#  Relaxed with BFGS, fmax=0.100 meV/AA
#  nsteps = 20
#  residual force  = 0.008038 meV/AA
#=======================================================
lattice_vector 11.5544369750680005 -0.0000000000000000 0.0000000000000000 
lattice_vector 0.0000000000000000 4.1779354207120001 0.0000000000000000 
lattice_vector 0.0000000000000000 0.0000000000000000 4.3748997059910000 
atom_frac 0.8586432648240000 0.7500000000000000 0.0317661785010000 Se
atom_frac 0.1413567351760000 0.2500000000000000 0.9682338214989999 Se
atom_frac 0.6413567351760000 0.2500000000000000 0.5317661785010001 Se
atom_frac 0.3586432648240000 0.7500000000000000 0.4682338214990000 Se
atom_frac 0.1202660212720000 0.7500000000000000 0.4013213574870000 Sn
atom_frac 0.8797339787280000 0.2500000000000000 0.5986786425130000 Sn
atom_frac 0.3797339787280000 0.2500000000000000 0.9013213574869999 Sn
atom_frac 0.6202660212720000 0.7500000000000000 0.0986786425130000 Sn
