#=======================================================
# FHI-aims file: /Users/flokno/working/projects/so3krates/dev_SnSe/test_10_EOS_easy/finer/so3krates_L1/eos/012/relaxation/geometry.in.next_step
# Created using the Atomic Simulation Environment (ASE)
# Mon Apr 17 17:09:41 2023

# Additional information:
#  Relaxed with BFGS, fmax=0.100 meV/AA
#  nsteps = 16
#  residual force  = 0.018900 meV/AA
#=======================================================
lattice_vector 11.5891349840019995 -0.0000000000000000 0.0000000000000000 
lattice_vector 0.0000000000000000 4.1904817733259998 0.0000000000000000 
lattice_vector 0.0000000000000000 0.0000000000000000 4.3880375429459999 
atom_frac 0.8586153728610000 0.7500000000000000 0.0338285548810000 Se
atom_frac 0.1413846271390000 0.2500000000000000 0.9661714451190000 Se
atom_frac 0.6413846271390000 0.2500000000000000 0.5338285548810000 Se
atom_frac 0.3586153728609999 0.7500000000000000 0.4661714451190000 Se
atom_frac 0.1208782506070000 0.7500000000000000 0.3970381146270000 Sn
atom_frac 0.8791217493929999 0.2500000000000000 0.6029618853730000 Sn
atom_frac 0.3791217493930000 0.2500000000000000 0.8970381146270000 Sn
atom_frac 0.6208782506070000 0.7500000000000000 0.1029618853730000 Sn
