#=======================================================
# FHI-aims file: /cfs/klemming/projects/snic/snic2021-1-10/dardel-test/flokno/projects/so3krates/dev_SnSe/test_10_EOS_easy/finer/dft_01/eos/000/relaxation/geometry.in.next_step
# Created using the Atomic Simulation Environment (ASE)
# Mon Apr 17 17:20:32 2023

# Additional information:
#  Relaxed with BFGS, fmax=0.100 meV/AA
#  nsteps = 22
#  residual force  = 0.014407 meV/AA
#=======================================================
lattice_vector 11.4503429482660000 -0.0000000000000000 0.0000000000000000 
lattice_vector 0.0000000000000000 4.1402963628679998 0.0000000000000000 
lattice_vector 0.0000000000000000 0.0000000000000000 4.3354861951260002 
atom_frac 0.8587708489610000 0.7500000867600001 0.0326939774150000 Se
atom_frac 0.1412291564210000 0.2499999673790000 0.9673059786380001 Se
atom_frac 0.6412291107300000 0.2499999490640000 0.5326939880950000 Se
atom_frac 0.3587708798650000 0.7500001302950000 0.4673060155220000 Se
atom_frac 0.1183537765700000 0.7499999853810000 0.4044539759660000 Sn
atom_frac 0.8816461874800000 0.2499999970920000 0.5955460369670000 Sn
atom_frac 0.3816461988420000 0.2499999738880000 0.9044540972140001 Sn
atom_frac 0.6183538411310000 0.7499999101410000 0.0955459301830000 Sn
