#=======================================================
# FHI-aims file: /Users/flokno/working/projects/so3krates/dev_SnSe/test_10_EOS_easy/finer/so3krates_L2/eos/007/relaxation/geometry.in.next_step
# Created using the Atomic Simulation Environment (ASE)
# Mon Apr 17 17:14:39 2023

# Additional information:
#  Relaxed with BFGS, fmax=0.100 meV/AA
#  nsteps = 14
#  residual force  = 0.076235 meV/AA
#=======================================================
lattice_vector 11.5313049691120000 -0.0000000000000000 0.0000000000000000 
lattice_vector 0.0000000000000000 4.1695711856350002 0.0000000000000000 
lattice_vector 0.0000000000000000 0.0000000000000000 4.3661411480209997 
atom_frac 0.8585569223990001 0.7500000000000000 0.0317351623190000 Se
atom_frac 0.1414430776010000 0.2500000000000000 0.9682648376810000 Se
atom_frac 0.6414430776009999 0.2500000000000000 0.5317351623190000 Se
atom_frac 0.3585569223990001 0.7500000000000000 0.4682648376810000 Se
atom_frac 0.1197066767790000 0.7500000000000000 0.4020207284160000 Sn
atom_frac 0.8802933232210001 0.2500000000000000 0.5979792715840000 Sn
atom_frac 0.3802933232210000 0.2500000000000000 0.9020207284160001 Sn
atom_frac 0.6197066767790000 0.7500000000000000 0.0979792715840000 Sn
