#=======================================================
# FHI-aims file: /Users/flokno/working/projects/so3krates/dev_SnSe/test_10_EOS_easy/so3krates_L2/eos/000/relaxation/geometry.in.next_step
# Created using the Atomic Simulation Environment (ASE)
# Thu Apr 13 17:18:05 2023

# Additional information:
#  Relaxed with BFGS, fmax=0.100 meV/AA
#  nsteps = 23
#  residual force  = 0.012136 meV/AA
#=======================================================
lattice_vector 11.3346829184850009 -0.0000000000000000 0.0000000000000000 
lattice_vector 0.0000000000000000 4.0984751874849996 0.0000000000000000 
lattice_vector 0.0000000000000000 0.0000000000000000 4.2916934052759999 
atom_frac 0.8595037278310002 0.7500000000000000 0.0299604885810000 Se
atom_frac 0.1404962721690000 0.2500000000000000 0.9700395114190000 Se
atom_frac 0.6404962721690000 0.2500000000000000 0.5299604885810000 Se
atom_frac 0.3595037278310000 0.7500000000000000 0.4700395114190001 Se
atom_frac 0.1175584526890000 0.7500000000000000 0.4175323834420001 Sn
atom_frac 0.8824415473110000 0.2500000000000000 0.5824676165580001 Sn
atom_frac 0.3824415473109999 0.2500000000000000 0.9175323834420001 Sn
atom_frac 0.6175584526890000 0.7500000000000000 0.0824676165580000 Sn
