#=======================================================
# FHI-aims file: /cfs/klemming/projects/snic/snic2021-1-10/dardel-test/flokno/projects/so3krates/dev_SnSe/test_10_EOS_easy/finer/dft_01/eos/005/relaxation/geometry.in.next_step
# Created using the Atomic Simulation Environment (ASE)
# Mon Apr 17 17:20:24 2023

# Additional information:
#  Relaxed with BFGS, fmax=0.100 meV/AA
#  nsteps = 21
#  residual force  = 0.015446 meV/AA
#=======================================================
lattice_vector 11.5081729631559995 -0.0000000000000000 0.0000000000000000 
lattice_vector 0.0000000000000000 4.1612069505590004 0.0000000000000000 
lattice_vector 0.0000000000000000 0.0000000000000000 4.3573825900510004 
atom_frac 0.8585327392229999 0.7500000515830000 0.0331686084690000 Se
atom_frac 0.1414673963110000 0.2500000820170000 0.9668315497829999 Se
atom_frac 0.6414674340430000 0.2499999665080000 0.5331685024060000 Se
atom_frac 0.3585327017860000 0.7500000457440000 0.4668316276630000 Se
atom_frac 0.1190882679290000 0.7499999535080000 0.4007297594760000 Sn
atom_frac 0.8809116130649999 0.2499999544100000 0.5992700417499999 Sn
atom_frac 0.3809115340370000 0.2499999832370000 0.9007296202450000 Sn
atom_frac 0.6190883136070000 0.7499999629940000 0.0992702902090000 Sn
