#=======================================================
# FHI-aims file: /Users/flokno/working/projects/so3krates/dev_SnSe/test_10_EOS_easy/so3krates_L1/eos/000/relaxation/geometry.in.next_step
# Created using the Atomic Simulation Environment (ASE)
# Fri Apr 14 11:24:14 2023

# Additional information:
#  Relaxed with BFGS, fmax=0.100 meV/AA
#  nsteps = 23
#  residual force  = 0.044981 meV/AA
#=======================================================
lattice_vector 11.3346829184850009 -0.0000000000000000 0.0000000000000000 
lattice_vector 0.0000000000000000 4.0984751874849996 0.0000000000000000 
lattice_vector 0.0000000000000000 0.0000000000000000 4.2916934052759999 
atom_frac 0.8593592025690000 0.7500000000000000 0.0239126227920000 Se
atom_frac 0.1406407974310000 0.2500000000000000 0.9760873772080001 Se
atom_frac 0.6406407974310000 0.2500000000000000 0.5239126227920000 Se
atom_frac 0.3593592025690001 0.7500000000000000 0.4760873772080000 Se
atom_frac 0.1174050073370000 0.7500000000000000 0.4246422860600000 Sn
atom_frac 0.8825949926630000 0.2500000000000000 0.5753577139400000 Sn
atom_frac 0.3825949926630000 0.2500000000000000 0.9246422860610000 Sn
atom_frac 0.6174050073370000 0.7500000000000000 0.0753577139400000 Sn
