#=======================================================
# FHI-aims file: /Users/flokno/working/projects/so3krates/dev_SnSe/test_10_EOS_easy/finer/so3krates_L3/eos/001/relaxation/geometry.in.next_step
# Created using the Atomic Simulation Environment (ASE)
# Mon Apr 17 17:19:39 2023

# Additional information:
#  Relaxed with BFGS, fmax=0.100 meV/AA
#  nsteps = 21
#  residual force  = 0.074284 meV/AA
#=======================================================
lattice_vector 11.4619089512440002 -0.0000000000000000 0.0000000000000000 
lattice_vector 0.0000000000000000 4.1444784804059998 0.0000000000000000 
lattice_vector 0.0000000000000000 0.0000000000000000 4.3398654741109999 
atom_frac 0.8590454796630000 0.7500000000000000 0.0324568114900000 Se
atom_frac 0.1409545203370000 0.2500000000000000 0.9675431885099999 Se
atom_frac 0.6409545203370000 0.2500000000000000 0.5324568114910000 Se
atom_frac 0.3590454796630000 0.7500000000000000 0.4675431885100000 Se
atom_frac 0.1188634933030000 0.7500000000000000 0.4055152936220000 Sn
atom_frac 0.8811365066960000 0.2500000000000000 0.5944847063780000 Sn
atom_frac 0.3811365066970000 0.2500000000000000 0.9055152936220001 Sn
atom_frac 0.6188634933029999 0.7500000000000000 0.0944847063780000 Sn
