#=======================================================
# FHI-aims file: /Users/flokno/working/projects/so3krates/dev_SnSe/test_10_EOS_easy/finer/so3krates_L2/eos/017/relaxation/geometry.in.next_step
# Created using the Atomic Simulation Environment (ASE)
# Mon Apr 17 17:17:20 2023

# Additional information:
#  Relaxed with BFGS, fmax=0.100 meV/AA
#  nsteps = 22
#  residual force  = 0.009195 meV/AA
#=======================================================
lattice_vector 11.6469649988920008 -0.0000000000000000 0.0000000000000000 
lattice_vector 0.0000000000000000 4.2113923610180004 0.0000000000000000 
lattice_vector 0.0000000000000000 0.0000000000000000 4.4099339378710001 
atom_frac 0.8582339999760001 0.7500000000000001 0.0331203975940000 Se
atom_frac 0.1417660000240000 0.2500000000000000 0.9668796024060000 Se
atom_frac 0.6417660000240000 0.2500000000000000 0.5331203975940000 Se
atom_frac 0.3582339999760000 0.7500000000000001 0.4668796024060000 Se
atom_frac 0.1215021223750000 0.7500000000000001 0.3942544013440000 Sn
atom_frac 0.8784978776250000 0.2500000000000000 0.6057455986560000 Sn
atom_frac 0.3784978776250000 0.2500000000000000 0.8942544013440000 Sn
atom_frac 0.6215021223750000 0.7500000000000001 0.1057455986560000 Sn
