#=======================================================
# FHI-aims file: /Users/flokno/working/projects/so3krates/dev_SnSe/test_10_EOS_easy/finer/so3krates_L1/eos/017/relaxation/geometry.in.next_step
# Created using the Atomic Simulation Environment (ASE)
# Mon Apr 17 17:10:35 2023

# Additional information:
#  Relaxed with BFGS, fmax=0.100 meV/AA
#  nsteps = 21
#  residual force  = 0.088552 meV/AA
#=======================================================
lattice_vector 11.6469649988920008 -0.0000000000000000 0.0000000000000000 
lattice_vector 0.0000000000000000 4.2113923610180004 0.0000000000000000 
lattice_vector 0.0000000000000000 0.0000000000000000 4.4099339378710001 
atom_frac 0.8585907701030001 0.7500000000000001 0.0373730273620000 Se
atom_frac 0.1414092298970000 0.2500000000000000 0.9626269726380000 Se
atom_frac 0.6414092298970000 0.2500000000000000 0.5373730273620000 Se
atom_frac 0.3585907701030000 0.7500000000000001 0.4626269726380000 Se
atom_frac 0.1219584431750000 0.7500000000000001 0.3899235804830000 Sn
atom_frac 0.8780415568250000 0.2500000000000000 0.6100764195170000 Sn
atom_frac 0.3780415568250000 0.2500000000000000 0.8899235804830000 Sn
atom_frac 0.6219584431750000 0.7500000000000001 0.1100764195170000 Sn
