#=======================================================
# FHI-aims file: /Users/flokno/working/projects/so3krates/dev_SnSe/test_10_EOS_easy/finer/so3krates_L1/eos/007/relaxation/geometry.in.next_step
# Created using the Atomic Simulation Environment (ASE)
# Mon Apr 17 17:08:50 2023

# Additional information:
#  Relaxed with BFGS, fmax=0.100 meV/AA
#  nsteps = 21
#  residual force  = 0.013296 meV/AA
#=======================================================
lattice_vector 11.5313049691120000 -0.0000000000000000 0.0000000000000000 
lattice_vector 0.0000000000000000 4.1695711856350002 0.0000000000000000 
lattice_vector 0.0000000000000000 0.0000000000000000 4.3661411480209997 
atom_frac 0.8586725346279999 0.7500000000000000 0.0304967236750000 Se
atom_frac 0.1413274653720000 0.2500000000000000 0.9695032763250000 Se
atom_frac 0.6413274653720000 0.2500000000000000 0.5304967236750000 Se
atom_frac 0.3586725346280000 0.7500000000000000 0.4695032763250001 Se
atom_frac 0.1198769386310000 0.7500000000000000 0.4040956359120000 Sn
atom_frac 0.8801230613690001 0.2500000000000000 0.5959043640880000 Sn
atom_frac 0.3801230613690000 0.2500000000000000 0.9040956359120002 Sn
atom_frac 0.6198769386310000 0.7500000000000000 0.0959043640880000 Sn
