#=======================================================
# FHI-aims file: /cfs/klemming/projects/snic/snic2021-1-10/dardel-test/flokno/projects/so3krates/dev_SnSe/test_10_EOS_easy/finer/dft_01/eos/004/relaxation/geometry.in.next_step
# Created using the Atomic Simulation Environment (ASE)
# Mon Apr 17 17:20:27 2023

# Additional information:
#  Relaxed with BFGS, fmax=0.100 meV/AA
#  nsteps = 21
#  residual force  = 0.034158 meV/AA
#=======================================================
lattice_vector 11.4966069601779992 -0.0000000000000000 0.0000000000000000 
lattice_vector 0.0000000000000000 4.1570248330209996 0.0000000000000000 
lattice_vector 0.0000000000000000 0.0000000000000000 4.3530033110659998 
atom_frac 0.8585775557790000 0.7499999901930000 0.0331330199290000 Se
atom_frac 0.1414224127520000 0.2499999788520000 0.9668670064750000 Se
atom_frac 0.6414223040100000 0.2500000291040000 0.5331329246730000 Se
atom_frac 0.3585776590000000 0.7499999495010000 0.4668670586760000 Se
atom_frac 0.1189306000340000 0.7499998069120000 0.4013985075760000 Sn
atom_frac 0.8810694561870002 0.2500002845540000 0.5986014648840000 Sn
atom_frac 0.3810693793640000 0.2500000218890000 0.9013984696789999 Sn
atom_frac 0.6189306328730000 0.7499999389960000 0.0986015481090000 Sn
