#=======================================================
# FHI-aims file: /Users/flokno/working/projects/so3krates/dev_SnSe/test_10_EOS_easy/finer/so3krates_L1/eos/008/relaxation/geometry.in.next_step
# Created using the Atomic Simulation Environment (ASE)
# Mon Apr 17 17:09:01 2023

# Additional information:
#  Relaxed with BFGS, fmax=0.100 meV/AA
#  nsteps = 20
#  residual force  = 0.025807 meV/AA
#=======================================================
lattice_vector 11.5428709720900002 -0.0000000000000000 0.0000000000000000 
lattice_vector 0.0000000000000000 4.1737533031740002 0.0000000000000000 
lattice_vector 0.0000000000000000 0.0000000000000000 4.3705204270060003 
atom_frac 0.8586558934850000 0.7500000000000001 0.0311116842620000 Se
atom_frac 0.1413441065150000 0.2500000000000000 0.9688883157380002 Se
atom_frac 0.6413441065150001 0.2500000000000000 0.5311116842620000 Se
atom_frac 0.3586558934850000 0.7500000000000001 0.4688883157380000 Se
atom_frac 0.1200687132320000 0.7500000000000001 0.4027264163650000 Sn
atom_frac 0.8799312867680000 0.2500000000000000 0.5972735836350000 Sn
atom_frac 0.3799312867680000 0.2500000000000000 0.9027264163650000 Sn
atom_frac 0.6200687132320001 0.7500000000000001 0.0972735836350000 Sn
