#=======================================================
# FHI-aims file: /cfs/klemming/projects/snic/snic2021-1-10/dardel-test/flokno/projects/so3krates/dev_SnSe/test_10_EOS_easy/dft_01/eos/002/relaxation/geometry.in.next_step
# Created using the Atomic Simulation Environment (ASE)
# Fri Apr 14 09:42:55 2023

# Additional information:
#  Relaxed with BFGS, fmax=0.100 meV/AA
#  nsteps = 22
#  residual force  = 0.024681 meV/AA
#=======================================================
lattice_vector 11.4272109423089994 -0.0000000000000000 0.0000000000000000 
lattice_vector 0.0000000000000000 4.1319321277909999 0.0000000000000000 
lattice_vector 0.0000000000000000 0.0000000000000000 4.3267276371560000 
atom_frac 0.8588804612470001 0.7499999458850000 0.0322450802490000 Se
atom_frac 0.1411195468090000 0.2500000235120000 0.9677550705980001 Se
atom_frac 0.6411195947790002 0.2499999890390000 0.5322450752370000 Se
atom_frac 0.3588804430570000 0.7499999722940000 0.4677549854100000 Se
atom_frac 0.1181035464410000 0.7499999804820000 0.4062850910950000 Sn
atom_frac 0.8818963836710000 0.2500000675220000 0.5937147367880000 Sn
atom_frac 0.3818965471770001 0.2499999483480000 0.9062852809100000 Sn
atom_frac 0.6181034768200000 0.7500000729189999 0.0937146797140000 Sn
