#=======================================================
# FHI-aims file: /Users/flokno/working/projects/so3krates/dev_SnSe/test_10_EOS_easy/so3krates_L1/eos/001/relaxation/geometry.in.next_step
# Created using the Atomic Simulation Environment (ASE)
# Fri Apr 14 11:24:26 2023

# Additional information:
#  Relaxed with BFGS, fmax=0.100 meV/AA
#  nsteps = 23
#  residual force  = 0.015749 meV/AA
#=======================================================
lattice_vector 11.3809469303970001 -0.0000000000000000 0.0000000000000000 
lattice_vector 0.0000000000000000 4.1152036576380002 0.0000000000000000 
lattice_vector 0.0000000000000000 0.0000000000000000 4.3092105212160003 
atom_frac 0.8591389628639999 0.7500000000000000 0.0248361981810000 Se
atom_frac 0.1408610371360000 0.2500000000000000 0.9751638018190001 Se
atom_frac 0.6408610371360000 0.2500000000000000 0.5248361981820000 Se
atom_frac 0.3591389628639999 0.7500000000000000 0.4751638018190000 Se
atom_frac 0.1178667931060000 0.7500000000000000 0.4202262728600000 Sn
atom_frac 0.8821332068939999 0.2500000000000000 0.5797737271400000 Sn
atom_frac 0.3821332068940000 0.2500000000000000 0.9202262728600001 Sn
atom_frac 0.6178667931060000 0.7500000000000000 0.0797737271400000 Sn
