#=======================================================
# FHI-aims file: eos/010/geometry.in
# Created using the Atomic Simulation Environment (ASE)
# Fri Apr 14 09:34:59 2023
#=======================================================
lattice_vector 11.7973230376069207 -0.0000000000000000 0.0000000000000000 
lattice_vector 0.0000000000000000 4.2657598890150004 0.0000000000000000 
lattice_vector 0.0000000000000000 0.0000000000000000 4.4668645646755198 
atom 10.1257396539904985 3.1993199167612496 0.1468483723174243 Se
atom 1.6715833836164227 1.0664399722537501 4.3200161923580991 Se
atom 7.5702449024198817 1.0664399722537501 2.3802806546551811 Se
atom 4.2270781351870372 3.1993199167612496 2.0865839100203387 Se
atom 1.4149933088050344 3.1993199167612496 1.7777069171068951 Sn
atom 10.3823297288019045 1.0664399722537501 2.6891576475686252 Sn
atom 4.4836682099984255 1.0664399722537501 4.0111391994446555 Sn
atom 7.3136548276084934 3.1993199167612496 0.4557253652308692 Sn
