#=======================================================
# FHI-aims file: /cfs/klemming/projects/snic/snic2021-1-10/dardel-test/flokno/projects/so3krates/dev_SnSe/test_10_EOS_easy/finer/dft_01/eos/003/relaxation/geometry.in.next_step
# Created using the Atomic Simulation Environment (ASE)
# Mon Apr 17 17:20:32 2023

# Additional information:
#  Relaxed with BFGS, fmax=0.100 meV/AA
#  nsteps = 21
#  residual force  = 0.073951 meV/AA
#=======================================================
lattice_vector 11.4850409572000007 -0.0000000000000000 0.0000000000000000 
lattice_vector 0.0000000000000000 4.1528427154819996 0.0000000000000000 
lattice_vector 0.0000000000000000 0.0000000000000000 4.3486240320810001 
atom_frac 0.8586243461100002 0.7500000782920000 0.0330676169890000 Se
atom_frac 0.1413754919380000 0.2499998965650000 0.9669327323010001 Se
atom_frac 0.6413757420220000 0.2499999695520000 0.5330673983320000 Se
atom_frac 0.3586242805570001 0.7500000046930000 0.4669325144220000 Se
atom_frac 0.1187789207530000 0.7499999356459999 0.4021081529510000 Sn
atom_frac 0.8812210622730000 0.2500001604780000 0.5978915852759999 Sn
atom_frac 0.3812212698660000 0.2500000846990000 0.9021084025630000 Sn
atom_frac 0.6187788864800001 0.7499998700739999 0.0978915971660000 Sn
