#=======================================================
# FHI-aims file: /Users/flokno/working/projects/so3krates/dev_SnSe/test_10_EOS_easy/finer/so3krates_L1/eos/015/relaxation/geometry.in.next_step
# Created using the Atomic Simulation Environment (ASE)
# Mon Apr 17 17:10:13 2023

# Additional information:
#  Relaxed with BFGS, fmax=0.100 meV/AA
#  nsteps = 21
#  residual force  = 0.009837 meV/AA
#=======================================================
lattice_vector 11.6238329929360003 -0.0000000000000000 0.0000000000000000 
lattice_vector 0.0000000000000000 4.2030281259409996 0.0000000000000000 
lattice_vector 0.0000000000000000 0.0000000000000000 4.4011753799009998 
atom_frac 0.8586012414000000 0.7500000000000000 0.0359485223470000 Se
atom_frac 0.1413987586000000 0.2500000000000000 0.9640514776530000 Se
atom_frac 0.6413987586000000 0.2500000000000000 0.5359485223469999 Se
atom_frac 0.3586012414000000 0.7500000000000000 0.4640514776530000 Se
atom_frac 0.1215233418920000 0.7500000000000000 0.3927608605800000 Sn
atom_frac 0.8784766581080000 0.2500000000000000 0.6072391394200000 Sn
atom_frac 0.3784766581080000 0.2500000000000000 0.8927608605800000 Sn
atom_frac 0.6215233418920000 0.7500000000000000 0.1072391394200000 Sn
