#=======================================================
# FHI-aims file: /Users/flokno/working/projects/so3krates/dev_SnSe/test_10_EOS_easy/finer/so3krates_L3/eos/011/relaxation/geometry.in.next_step
# Created using the Atomic Simulation Environment (ASE)
# Mon Apr 17 17:23:09 2023

# Additional information:
#  Relaxed with BFGS, fmax=0.100 meV/AA
#  nsteps = 15
#  residual force  = 0.037067 meV/AA
#=======================================================
lattice_vector 11.5775689810239992 -0.0000000000000000 0.0000000000000000 
lattice_vector 0.0000000000000000 4.1862996557879999 0.0000000000000000 
lattice_vector 0.0000000000000000 0.0000000000000000 4.3836582639610002 
atom_frac 0.8583256755790000 0.7500000000000000 0.0331884566360000 Se
atom_frac 0.1416743244210000 0.2500000000000000 0.9668115433640000 Se
atom_frac 0.6416743244210000 0.2500000000000000 0.5331884566360000 Se
atom_frac 0.3583256755790000 0.7500000000000000 0.4668115433639999 Se
atom_frac 0.1201073330690000 0.7500000000000000 0.3966528917180000 Sn
atom_frac 0.8798926669310001 0.2500000000000000 0.6033471082820000 Sn
atom_frac 0.3798926669310000 0.2500000000000000 0.8966528917180000 Sn
atom_frac 0.6201073330690000 0.7500000000000000 0.1033471082820000 Sn
