#=======================================================
# FHI-aims file: /Users/flokno/working/projects/so3krates/dev_SnSe/test_10_EOS_easy/so3krates_L3/eos/004/relaxation/geometry.in.next_step
# Created using the Atomic Simulation Environment (ASE)
# Thu Apr 13 17:24:43 2023

# Additional information:
#  Relaxed with BFGS, fmax=0.100 meV/AA
#  nsteps = 20
#  residual force  = 0.049037 meV/AA
#=======================================================
lattice_vector 11.5197389661339997 -0.0000000000000000 0.0000000000000000 
lattice_vector 0.0000000000000000 4.1653890680970003 0.0000000000000000 
lattice_vector 0.0000000000000000 0.0000000000000000 4.3617618690360000 
atom_frac 0.8586608017840001 0.7500000000000001 0.0329474874850000 Se
atom_frac 0.1413391982160000 0.2500000000000000 0.9670525125149999 Se
atom_frac 0.6413391982160002 0.2500000000000000 0.5329474874850000 Se
atom_frac 0.3586608017840000 0.7500000000000001 0.4670525125150001 Se
atom_frac 0.1194175564770000 0.7500000000000001 0.4007753618800000 Sn
atom_frac 0.8805824435230000 0.2500000000000000 0.5992246381200000 Sn
atom_frac 0.3805824435230001 0.2500000000000000 0.9007753618800001 Sn
atom_frac 0.6194175564770000 0.7500000000000001 0.0992246381200000 Sn
