#=======================================================
# FHI-aims file: /cfs/klemming/projects/snic/snic2021-1-10/dardel-test/flokno/projects/so3krates/dev_SnSe/test_10_EOS_easy/dft_01/eos/008/relaxation/geometry.in.next_step
# Created using the Atomic Simulation Environment (ASE)
# Fri Apr 14 09:42:39 2023

# Additional information:
#  Relaxed with BFGS, fmax=0.100 meV/AA
#  nsteps = 22
#  residual force  = 0.057792 meV/AA
#=======================================================
lattice_vector 11.7047950137830004 -0.0000000000000000 0.0000000000000000 
lattice_vector 0.0000000000000000 4.2323029487090000 0.0000000000000000 
lattice_vector 0.0000000000000000 0.0000000000000000 4.4318303327960002 
atom_frac 0.8577110670490000 0.7499999523930000 0.0312075714140000 Se
atom_frac 0.1422890177590000 0.2500000411530000 0.9687918675729998 Se
atom_frac 0.6422891072600000 0.2500000044520000 0.5312077286140000 Se
atom_frac 0.3577108904760000 0.7499999294979999 0.4687921657479999 Se
atom_frac 0.1222145722490000 0.7500001025710000 0.3925492612459999 Sn
atom_frac 0.8777853114129999 0.2500000099530000 0.6074511757519999 Sn
atom_frac 0.3777851496960000 0.2500000219490000 0.8925488574150000 Sn
atom_frac 0.6222148840970000 0.7499999380309998 0.1074513722380000 Sn
