#=======================================================
# FHI-aims file: eos/008/geometry.in
# Created using the Atomic Simulation Environment (ASE)
# Fri Apr 14 09:34:59 2023
#=======================================================
lattice_vector 11.7047950137825527 -0.0000000000000000 0.0000000000000000 
lattice_vector 0.0000000000000000 4.2323029487090000 0.0000000000000000 
lattice_vector 0.0000000000000000 0.0000000000000000 4.4318303327957116 
atom 10.0463220880768471 3.1742272115317496 0.1456966203776797 Se
atom 1.6584729257057056 1.0580757371772500 4.2861337124180352 Se
atom 7.5108704325969811 1.0580757371772500 2.3616117867755326 Se
atom 4.1939245811855699 3.1742272115317496 2.0702185460201794 Se
atom 1.4038953220693087 3.1742272115317496 1.7637641177570371 Sn
atom 10.3008996917132620 1.0580757371772500 2.6680662150386754 Sn
atom 4.4485021848219679 1.0580757371772500 3.9796792841548934 Sn
atom 7.2562928289605839 3.1742272115317496 0.4521510486408232 Sn
