#=======================================================
# FHI-aims file: /Users/flokno/working/projects/so3krates/dev_SnSe/test_10_EOS_easy/so3krates_L2/eos/006/relaxation/geometry.in.next_step
# Created using the Atomic Simulation Environment (ASE)
# Thu Apr 13 17:19:44 2023

# Additional information:
#  Relaxed with BFGS, fmax=0.100 meV/AA
#  nsteps = 20
#  residual force  = 0.079651 meV/AA
#=======================================================
lattice_vector 11.6122669899580000 -0.0000000000000000 0.0000000000000000 
lattice_vector 0.0000000000000000 4.1988460084029997 0.0000000000000000 
lattice_vector 0.0000000000000000 0.0000000000000000 4.3967961009160001 
atom_frac 0.8583382109269999 0.7500000000000000 0.0327009933650000 Se
atom_frac 0.1416617890730000 0.2500000000000000 0.9672990066349999 Se
atom_frac 0.6416617890729999 0.2500000000000000 0.5327009933649999 Se
atom_frac 0.3583382109270000 0.7500000000000000 0.4672990066350000 Se
atom_frac 0.1209417746310000 0.7500000000000000 0.3964912637690000 Sn
atom_frac 0.8790582253689999 0.2500000000000000 0.6035087362310000 Sn
atom_frac 0.3790582253690000 0.2500000000000000 0.8964912637689999 Sn
atom_frac 0.6209417746310000 0.7500000000000000 0.1035087362310000 Sn
