#=======================================================
# FHI-aims file: /cfs/klemming/projects/snic/snic2021-1-10/dardel-test/flokno/projects/so3krates/dev_SnSe/test_10_EOS_easy/finer/dft_01/eos/017/relaxation/geometry.in.next_step
# Created using the Atomic Simulation Environment (ASE)
# Mon Apr 17 17:29:46 2023

# Additional information:
#  Relaxed with BFGS, fmax=0.100 meV/AA
#  nsteps = 22
#  residual force  = 0.009495 meV/AA
#=======================================================
lattice_vector 11.6469649988920008 -0.0000000000000000 0.0000000000000000 
lattice_vector 0.0000000000000000 4.2113923610180004 0.0000000000000000 
lattice_vector 0.0000000000000000 0.0000000000000000 4.4099339378710001 
atom_frac 0.8579713757360001 0.7499999710980000 0.0318872372530000 Se
atom_frac 0.1420286626170000 0.2500000140650001 0.9681127121120000 Se
atom_frac 0.6420286498920000 0.2500000460770000 0.5318872141240000 Se
atom_frac 0.3579713430100000 0.7499999793770000 0.4681128265080000 Se
atom_frac 0.1212400583450000 0.7500000984750000 0.3948344628300000 Sn
atom_frac 0.8787599526500000 0.2499999212670000 0.6051654624360000 Sn
atom_frac 0.3787599009910000 0.2499999572930000 0.8948345783170000 Sn
atom_frac 0.6212400567580000 0.7500000123490002 0.1051655064200000 Sn
