#=======================================================
# FHI-aims file: eos/001/geometry.in
# Created using the Atomic Simulation Environment (ASE)
# Fri Apr 14 11:23:48 2023
#=======================================================
lattice_vector 11.3809469303972648 -0.0000000000000000 0.0000000000000000 
lattice_vector 0.0000000000000000 4.1152036576380002 0.0000000000000000 
lattice_vector 0.0000000000000000 0.0000000000000000 4.3092105212163840 
atom 9.7683606073790674 3.0864027432284997 0.1416654885885740 Se
atom 1.6125863230181958 1.0288009144095001 4.1675450326278130 Se
atom 7.3030597882168271 1.0288009144095001 2.2962707491967635 Se
atom 4.0778871421804359 3.0864027432284997 2.0129397720196214 Se
atom 1.3650523684942684 3.0864027432284997 1.7149643200325344 Sn
atom 10.0158945619030142 1.0288009144095001 2.5942462011838505 Sn
atom 4.3254210967043640 1.0288009144095001 3.8695695806407264 Sn
atom 7.0555258336928990 3.0864027432284997 0.4396409405756621 Sn
