#=======================================================
# FHI-aims file: /Users/flokno/working/projects/so3krates/dev_SnSe/test_10_EOS_easy/finer/so3krates_L3/eos/016/relaxation/geometry.in.next_step
# Created using the Atomic Simulation Environment (ASE)
# Mon Apr 17 17:24:56 2023

# Additional information:
#  Relaxed with BFGS, fmax=0.100 meV/AA
#  nsteps = 21
#  residual force  = 0.074945 meV/AA
#=======================================================
lattice_vector 11.6353989959140005 -0.0000000000000000 0.0000000000000000 
lattice_vector 0.0000000000000000 4.2072102434790004 0.0000000000000000 
lattice_vector 0.0000000000000000 0.0000000000000000 4.4055546588860004 
atom_frac 0.8580282862470000 0.7500000000000000 0.0332076343880000 Se
atom_frac 0.1419717137530000 0.2500000000000000 0.9667923656120001 Se
atom_frac 0.6419717137530000 0.2500000000000000 0.5332076343880000 Se
atom_frac 0.3580282862470000 0.7500000000000000 0.4667923656119999 Se
atom_frac 0.1209450955170000 0.7500000000000000 0.3931636713139999 Sn
atom_frac 0.8790549044830001 0.2500000000000000 0.6068363286860000 Sn
atom_frac 0.3790549044830000 0.2500000000000000 0.8931636713140000 Sn
atom_frac 0.6209450955169999 0.7500000000000000 0.1068363286860000 Sn
